S2Zn2                                   
   1.00000000000000     
     3.8896802898294647    0.0000000000000000    0.0000000000000000
    -1.9448401448651558    3.3685619435295626    0.0000000000000000
     0.0000000000000000    0.0000000000000000   18.8558006286999991
   S    Zn
     2     2
Direct
  0.3333333432247656  0.6666666864665203  0.4165008044431029
  0.6666666568115005  0.3333333135040419  0.5834991955197641
  0.3333333432247656  0.6666666864665203  0.5543335202193372
  0.6666666568115005  0.3333333135040419  0.4456664797435370
 
  0.00000000E+00  0.00000000E+00  0.00000000E+00
  0.00000000E+00  0.00000000E+00  0.00000000E+00
  0.00000000E+00  0.00000000E+00  0.00000000E+00
  0.00000000E+00  0.00000000E+00  0.00000000E+00
