S2Zn2                                   
   1.00000000000000     
     3.8918471068115621    0.0000000000000000    0.0000000000000000
    -1.9459235533561769    3.3704384620813057    0.0000000000000000
     0.0000000000000000    0.0000000000000000   18.8558006286999991
   S    Zn
     2     2
Direct
  0.3333333432247656  0.6666666864665203  0.4172919769091301
  0.6666666568115005  0.3333333135040419  0.5827080230537439
  0.3333333432247656  0.6666666864665203  0.5542090910197838
  0.6666666568115005  0.3333333135040419  0.4457909089430904
 
  0.00000000E+00  0.00000000E+00  0.00000000E+00
  0.00000000E+00  0.00000000E+00  0.00000000E+00
  0.00000000E+00  0.00000000E+00  0.00000000E+00
  0.00000000E+00  0.00000000E+00  0.00000000E+00
