cif2pos.py                              
   1.00000000000000     
    11.6563999999999997    0.0000000000000000    0.0000000000000000
    -5.8282323800000002   10.0948352900000007    0.0000000000000000
     0.0000000000000000    0.0000000000000000   25.0000000000000000
   Cd   Cl   Zn   S 
     9    18    18    17
Direct
  0.3334889259803049  0.0000780936861773  0.6284719042484710
  0.3332494527371779  0.3334180432349001  0.6286018320230440
  0.3332488033240324  0.6664984546868666  0.6286023653782138
  0.6665888847350416  0.0000775015754613  0.6284713774232102
  0.6665892591322731  0.3331775920477611  0.6284710388758015
  0.6665450591125222  0.6666057359736541  0.6279720799644863
  0.0000607601940388  0.0001214521861499  0.6279722331306345
  0.0001689631474022  0.3334177608697360  0.6286016704602702
  0.0000605274518932  0.6666060943469958  0.6279724408496179
  0.2215986018310261  0.1109988934913204  0.6862649762595652
  0.2222222175204465  0.4444445896458546  0.6867149326521442
  0.2215979245722224  0.7772675207360109  0.6862652167757304
  0.5555563644329311  0.1111116585780607  0.6865932947694873
  0.5556690300186773  0.4450682390822749  0.6862648454550850
  0.5556687828962623  0.7772671601603136  0.6862650332245508
  0.8893998118658359  0.1109980957835575  0.6862647512534181
  0.8893993580376716  0.4450677814750748  0.6862648131737785
  0.8888882048351832  0.7777776270058467  0.6860585036417604
  0.1120528981098303  0.2241048603005140  0.5704231161723712
  0.1120526906229600  0.5546150286922682  0.5704232994723668
  0.1115692564637172  0.8891180263176039  0.5708556534167428
  0.4443844266881740  0.2222817703230078  0.5712067257104323
  0.4425616525648479  0.5546146603301878  0.5704231886096522
  0.4443838224933003  0.8887686704957787  0.5712069068039085
  0.7778980089266909  0.2222815381368832  0.5712065932623958
  0.7775489676650764  0.5550974424607276  0.5708553714483600
  0.7775485075511099  0.8891174109093569  0.5708554146179381
  0.2208461219215607  0.1137503677757579  0.3441275028476127
  0.2222220285736114  0.4444444067383202  0.3592407371579895
  0.2208450547966265  0.7737627676134551  0.3441278178387250
  0.5555556807780988  0.1111112087502377  0.3436636302448974
  0.5529161037140753  0.4458208129450227  0.3441279253290546
  0.5529167424950003  0.7737623861491443  0.3441273987369939
  0.8929035386720230  0.1137488930938559  0.3441279760024329
  0.8929037420469186  0.4458206833610348  0.3441275471847618
  0.8888884014740270  0.7777775949124148  0.3443828229285941
  0.1212352700831971  0.2424685404116858  0.4237784990231219
  0.1212344144576676  0.5454337389540456  0.4237785211129008
  0.1117665901981724  0.8892170854705057  0.4271634897148999
  0.4442258965181978  0.2224419393811132  0.4270224437771262
  0.4241969082529167  0.5454320170413638  0.4237792282809849
  0.4442254926533806  0.8884505799478646  0.4270222403433408
  0.7782169229619313  0.2224416740221926  0.4270223106660396
  0.7774504438067567  0.5549002491981838  0.4271632958716083
  0.7774498775200200  0.8892163070040695  0.4271635684782922
  0.2207817120917639  0.1169603057371376  0.4472541513872414
  0.2207810746862506  0.7704875772069997  0.4472543477548214
  0.5555555586797496  0.1111102954216889  0.4487705343302295
  0.5497056652150789  0.4458847475287584  0.4472539591084939
  0.5497051363620074  0.7704864303766001  0.4472541246361672
  0.8961791621513129  0.1169596415255398  0.4472542195952656
  0.8961789910910909  0.4458847712431862  0.4472543306363690
  0.8888881281908922  0.7777770701903179  0.4493663666945835
  0.1148724690615168  0.2297450089902071  0.3207311759726963
  0.1148727934870521  0.5517957307668411  0.3207313651601709
  0.1118821223279127  0.8892752343037031  0.3244299789701302
  0.4442245431641325  0.2224438726552975  0.3229658679731173
  0.4369230076776915  0.5517951623011115  0.3207310385738396
  0.4442239694774628  0.8884478846855899  0.3229660716813427
  0.7782199593765355  0.2224434515685232  0.3229660089420321
  0.7773926586179130  0.5547855621505207  0.3244301446075966
  0.7773926545067908  0.8892742980453718  0.3244297793631574
 
  0.00000000E+00  0.00000000E+00  0.00000000E+00
  0.00000000E+00  0.00000000E+00  0.00000000E+00
  0.00000000E+00  0.00000000E+00  0.00000000E+00
  0.00000000E+00  0.00000000E+00  0.00000000E+00
  0.00000000E+00  0.00000000E+00  0.00000000E+00
  0.00000000E+00  0.00000000E+00  0.00000000E+00
  0.00000000E+00  0.00000000E+00  0.00000000E+00
  0.00000000E+00  0.00000000E+00  0.00000000E+00
  0.00000000E+00  0.00000000E+00  0.00000000E+00
  0.00000000E+00  0.00000000E+00  0.00000000E+00
  0.00000000E+00  0.00000000E+00  0.00000000E+00
  0.00000000E+00  0.00000000E+00  0.00000000E+00
  0.00000000E+00  0.00000000E+00  0.00000000E+00
  0.00000000E+00  0.00000000E+00  0.00000000E+00
  0.00000000E+00  0.00000000E+00  0.00000000E+00
  0.00000000E+00  0.00000000E+00  0.00000000E+00
  0.00000000E+00  0.00000000E+00  0.00000000E+00
  0.00000000E+00  0.00000000E+00  0.00000000E+00
  0.00000000E+00  0.00000000E+00  0.00000000E+00
  0.00000000E+00  0.00000000E+00  0.00000000E+00
  0.00000000E+00  0.00000000E+00  0.00000000E+00
  0.00000000E+00  0.00000000E+00  0.00000000E+00
  0.00000000E+00  0.00000000E+00  0.00000000E+00
  0.00000000E+00  0.00000000E+00  0.00000000E+00
  0.00000000E+00  0.00000000E+00  0.00000000E+00
  0.00000000E+00  0.00000000E+00  0.00000000E+00
  0.00000000E+00  0.00000000E+00  0.00000000E+00
  0.00000000E+00  0.00000000E+00  0.00000000E+00
  0.00000000E+00  0.00000000E+00  0.00000000E+00
  0.00000000E+00  0.00000000E+00  0.00000000E+00
  0.00000000E+00  0.00000000E+00  0.00000000E+00
  0.00000000E+00  0.00000000E+00  0.00000000E+00
  0.00000000E+00  0.00000000E+00  0.00000000E+00
  0.00000000E+00  0.00000000E+00  0.00000000E+00
  0.00000000E+00  0.00000000E+00  0.00000000E+00
  0.00000000E+00  0.00000000E+00  0.00000000E+00
  0.00000000E+00  0.00000000E+00  0.00000000E+00
  0.00000000E+00  0.00000000E+00  0.00000000E+00
  0.00000000E+00  0.00000000E+00  0.00000000E+00
  0.00000000E+00  0.00000000E+00  0.00000000E+00
  0.00000000E+00  0.00000000E+00  0.00000000E+00
  0.00000000E+00  0.00000000E+00  0.00000000E+00
  0.00000000E+00  0.00000000E+00  0.00000000E+00
  0.00000000E+00  0.00000000E+00  0.00000000E+00
  0.00000000E+00  0.00000000E+00  0.00000000E+00
  0.00000000E+00  0.00000000E+00  0.00000000E+00
  0.00000000E+00  0.00000000E+00  0.00000000E+00
  0.00000000E+00  0.00000000E+00  0.00000000E+00
  0.00000000E+00  0.00000000E+00  0.00000000E+00
  0.00000000E+00  0.00000000E+00  0.00000000E+00
  0.00000000E+00  0.00000000E+00  0.00000000E+00
  0.00000000E+00  0.00000000E+00  0.00000000E+00
  0.00000000E+00  0.00000000E+00  0.00000000E+00
  0.00000000E+00  0.00000000E+00  0.00000000E+00
  0.00000000E+00  0.00000000E+00  0.00000000E+00
  0.00000000E+00  0.00000000E+00  0.00000000E+00
  0.00000000E+00  0.00000000E+00  0.00000000E+00
  0.00000000E+00  0.00000000E+00  0.00000000E+00
  0.00000000E+00  0.00000000E+00  0.00000000E+00
  0.00000000E+00  0.00000000E+00  0.00000000E+00
  0.00000000E+00  0.00000000E+00  0.00000000E+00
  0.00000000E+00  0.00000000E+00  0.00000000E+00
