cif2pos.py                              
   1.00000000000000     
    11.6563999999999997    0.0000000000000000    0.0000000000000000
    -5.8282323800000002   10.0948352900000007    0.0000000000000000
     0.0000000000000000    0.0000000000000000   25.0000000000000000
   Cd   Cl   Zn   S 
     9    18    18    17
Direct
  0.3333939253486307  0.0001215616144918  0.6279726028862811
  0.3335021993126546  0.3334179880104813  0.6286018081522897
  0.3333936941086861  0.6666063058913139  0.6279728420824711
  0.6668221049436340  0.0000773841663317  0.6284713792112910
  0.6665826538075308  0.3334173461924692  0.6286012456313230
  0.6665820119895187  0.6664978006873454  0.6286018081522897
  0.9999222360035418  0.0000777639964582  0.6284717232834893
  0.9999226158336683  0.3331778950563660  0.6284713792112910
  0.9998784383855082  0.6666060746513693  0.6279726028862811
  0.2227333336463388  0.1109987866827566  0.6862650525597616
  0.2227328498427710  0.4450682877015737  0.6862651060253739
  0.2222217230681878  0.7777782769318122  0.6860589130975399
  0.5549323816721241  0.1109985813429191  0.6862648580033266
  0.5555558633069211  0.4444441366930789  0.6867148377536054
  0.5549317122984263  0.7772671501572290  0.6862651060253739
  0.8888888522230474  0.1111111477769597  0.6865932673107125
  0.8890014186570809  0.4450676183278759  0.6862648580033266
  0.8890012133172434  0.7772666663536612  0.6862650525597616
  0.1112315659948209  0.2222822398013449  0.5712067202326665
  0.1108824504829400  0.5550982580050459  0.5708556326666496
  0.1108820232704559  0.8891179767295441  0.5708556594306984
  0.4453854928067713  0.2241043602731381  0.5704230907230610
  0.4453853067617146  0.5546146932382854  0.5704232752319882
  0.4449017419949541  0.8891175495170600  0.5708556326666496
  0.7777183567306167  0.2222816432693833  0.5712065088863909
  0.7758956397268619  0.5546145071932287  0.5704230907230610
  0.7777177601986551  0.8887684340051791  0.5712067202326665
  0.2262376198667226  0.1137499061193807  0.3441278200098381
  0.2262364502209238  0.4458209339141135  0.3441278140951667
  0.2222218820920219  0.7777781179079781  0.3443827882642410
  0.5541795170594526  0.1137506620512170  0.3441277682192805
  0.5555555375969163  0.4444444624030837  0.3592404859124656
  0.5541790660858865  0.7737635497790762  0.3441278140951667
  0.8888889365011252  0.1111110634988748  0.3436635422646148
  0.8862493379487830  0.4458204829405474  0.3441277682192805
  0.8862500938806193  0.7737623801332774  0.3441278200098381
  0.1115496816209571  0.2224414855404007  0.4270223359024499
  0.1107834544677431  0.5549008534026569  0.4271633794008807
  0.1107832760760488  0.8892167239239512  0.4271635866440278
  0.4545690479186959  0.2424702086672852  0.4237790237409911
  0.4545666321382313  0.5454333678617687  0.4237781361464670
  0.4450991465973431  0.8892165455322569  0.4271633794008807
  0.7775591077599699  0.2224408922400301  0.4270224731915135
  0.7575297913327148  0.5454309520813041  0.4237790237409911
  0.7775585144595993  0.8884503183790429  0.4270223359024499
  0.2295134930288540  0.1169609493500801  0.4472538925693286
  0.2295123225373601  0.4458857216106438  0.4472541599701430
  0.2222220577806340  0.7777779422193660  0.4493655672508723
  0.5541150605665948  0.1169606050330572  0.4472538488785602
  0.5541142783893562  0.7704876774626399  0.4472541599701430
  0.8888892651693041  0.1111107348306959  0.4487701321489439
  0.8830393949669428  0.4458849394334052  0.4472538488785602
  0.8830390506499199  0.7704865069711460  0.4472538925693286
  0.1115531464569131  0.2224433081430135  0.3229661783821882
  0.1107254168475720  0.5547856408388512  0.3244302582611098
  0.1107257496564813  0.8892742503435187  0.3244299767084158
  0.4482053303145292  0.2297443240956554  0.3207309296191099
  0.4482049897220435  0.5517950102779565  0.3207316831505906
  0.4452143591611488  0.8892745831524280  0.3244302582611098
  0.7775570576339703  0.2224429423660297  0.3229660365901879
  0.7702556759043446  0.5517946696854708  0.3207309296191099
  0.7775566918569865  0.8884468535430869  0.3229661783821882
 
  0.00000000E+00  0.00000000E+00  0.00000000E+00
  0.00000000E+00  0.00000000E+00  0.00000000E+00
  0.00000000E+00  0.00000000E+00  0.00000000E+00
  0.00000000E+00  0.00000000E+00  0.00000000E+00
  0.00000000E+00  0.00000000E+00  0.00000000E+00
  0.00000000E+00  0.00000000E+00  0.00000000E+00
  0.00000000E+00  0.00000000E+00  0.00000000E+00
  0.00000000E+00  0.00000000E+00  0.00000000E+00
  0.00000000E+00  0.00000000E+00  0.00000000E+00
  0.00000000E+00  0.00000000E+00  0.00000000E+00
  0.00000000E+00  0.00000000E+00  0.00000000E+00
  0.00000000E+00  0.00000000E+00  0.00000000E+00
  0.00000000E+00  0.00000000E+00  0.00000000E+00
  0.00000000E+00  0.00000000E+00  0.00000000E+00
  0.00000000E+00  0.00000000E+00  0.00000000E+00
  0.00000000E+00  0.00000000E+00  0.00000000E+00
  0.00000000E+00  0.00000000E+00  0.00000000E+00
  0.00000000E+00  0.00000000E+00  0.00000000E+00
  0.00000000E+00  0.00000000E+00  0.00000000E+00
  0.00000000E+00  0.00000000E+00  0.00000000E+00
  0.00000000E+00  0.00000000E+00  0.00000000E+00
  0.00000000E+00  0.00000000E+00  0.00000000E+00
  0.00000000E+00  0.00000000E+00  0.00000000E+00
  0.00000000E+00  0.00000000E+00  0.00000000E+00
  0.00000000E+00  0.00000000E+00  0.00000000E+00
  0.00000000E+00  0.00000000E+00  0.00000000E+00
  0.00000000E+00  0.00000000E+00  0.00000000E+00
  0.00000000E+00  0.00000000E+00  0.00000000E+00
  0.00000000E+00  0.00000000E+00  0.00000000E+00
  0.00000000E+00  0.00000000E+00  0.00000000E+00
  0.00000000E+00  0.00000000E+00  0.00000000E+00
  0.00000000E+00  0.00000000E+00  0.00000000E+00
  0.00000000E+00  0.00000000E+00  0.00000000E+00
  0.00000000E+00  0.00000000E+00  0.00000000E+00
  0.00000000E+00  0.00000000E+00  0.00000000E+00
  0.00000000E+00  0.00000000E+00  0.00000000E+00
  0.00000000E+00  0.00000000E+00  0.00000000E+00
  0.00000000E+00  0.00000000E+00  0.00000000E+00
  0.00000000E+00  0.00000000E+00  0.00000000E+00
  0.00000000E+00  0.00000000E+00  0.00000000E+00
  0.00000000E+00  0.00000000E+00  0.00000000E+00
  0.00000000E+00  0.00000000E+00  0.00000000E+00
  0.00000000E+00  0.00000000E+00  0.00000000E+00
  0.00000000E+00  0.00000000E+00  0.00000000E+00
  0.00000000E+00  0.00000000E+00  0.00000000E+00
  0.00000000E+00  0.00000000E+00  0.00000000E+00
  0.00000000E+00  0.00000000E+00  0.00000000E+00
  0.00000000E+00  0.00000000E+00  0.00000000E+00
  0.00000000E+00  0.00000000E+00  0.00000000E+00
  0.00000000E+00  0.00000000E+00  0.00000000E+00
  0.00000000E+00  0.00000000E+00  0.00000000E+00
  0.00000000E+00  0.00000000E+00  0.00000000E+00
  0.00000000E+00  0.00000000E+00  0.00000000E+00
  0.00000000E+00  0.00000000E+00  0.00000000E+00
  0.00000000E+00  0.00000000E+00  0.00000000E+00
  0.00000000E+00  0.00000000E+00  0.00000000E+00
  0.00000000E+00  0.00000000E+00  0.00000000E+00
  0.00000000E+00  0.00000000E+00  0.00000000E+00
  0.00000000E+00  0.00000000E+00  0.00000000E+00
  0.00000000E+00  0.00000000E+00  0.00000000E+00
  0.00000000E+00  0.00000000E+00  0.00000000E+00
  0.00000000E+00  0.00000000E+00  0.00000000E+00
