Generated by VASPKIT code               
   1.00000000000000     
    11.6564365376424721    0.0000000000000000    0.0000000000000000
    -5.8282182688212361   10.0948036444898790    0.0000000000000000
     0.0000000000000000    0.0000000000000000   25.0000000000000000
   Cd   Cl   Zn   S 
     9    18    18    18
Direct
  0.3538384620591177  0.9977756659588857  0.6267025369980855
  0.3444217602398893  0.3289526611662562  0.6343919614243766
  0.3546918237992648  0.6801913865984409  0.6570433866304226
  0.6918543945290974  0.0076118135313077  0.6231080791346489
  0.6881656439931726  0.3342786460719598  0.6415237534393741
  0.6709644360228284  0.6636454761166404  0.6323293726971900
  0.0115715797367721  0.0013403747030490  0.6224735241171905
  0.0103077207426301  0.3348571230722375  0.6475368212016825
  0.0161554164616190  0.6784214028146492  0.6494296736095195
  0.2208134485592666  0.1016646778176700  0.6822076731041904
  0.2394389640510074  0.4397253757651372  0.7047824555556220
  0.2511398845761661  0.7978598781185370  0.7018355963075997
  0.5650656247401810  0.1221033503207070  0.6919153868972335
  0.5643143675897675  0.4427478957230624  0.6962115801140670
  0.5901074378613569  0.7946102272705649  0.6912616450415600
  0.8968878300295313  0.1007916559577689  0.6882359993285069
  0.9101730644298888  0.4501310615175799  0.7094824948557235
  0.9023315937039833  0.7922855932394559  0.6952651754034683
  0.1245505579212313  0.2313956415568712  0.5737448690675930
  0.1076692221444015  0.5498762144300048  0.5874366961074453
  0.1222568806254108  0.8697346231057371  0.5793975448276146
  0.4436517603357159  0.1987005225685296  0.5723480120033637
  0.4418686327815978  0.5612154395142349  0.5855269542012689
  0.4668467449063495  0.8773314359841807  0.5793233707519791
  0.7995679196531466  0.2319785636035793  0.5780984064955329
  0.7752627906492063  0.5478024958717042  0.5883119449452932
  0.7955508613965020  0.8705736308888925  0.5657759414005242
  0.1920430270259120  0.1100658649084466  0.3352979095901628
  0.1989971625340425  0.4176547561376251  0.3386311341582512
  0.2388509076518067  0.7880622571307693  0.3067215270678818
  0.5437536927218083  0.0907682222621013  0.3359397855013344
  0.5573863139289466  0.4381070822284314  0.3109928618367410
  0.5408837169736349  0.7756060949652621  0.3226158061466504
  0.8837860444222636  0.1094687071895206  0.3124077917207668
  0.8650062950247885  0.4386795363827667  0.3259294540174195
  0.8689730170173001  0.7583169689361097  0.3267809604349006
  0.0976871075973322  0.2281763338791167  0.4565443412789481
  0.1013914983137268  0.5787299617014533  0.4277300907826064
  0.0946352487099229  0.8734909174837453  0.4163520963454148
  0.4417832696704109  0.2510290092954477  0.4268715402764975
  0.4455730041551357  0.5641849587588955  0.4204401133081543
  0.4061724709166850  0.8934618939545595  0.4541330017666852
  0.7870678300876442  0.2135195984773545  0.4222015807019421
  0.7401806204252936  0.5444971181526620  0.4374644290609863
  0.7582898417701224  0.9009278812149107  0.4215390921301650
  0.2039175849818441  0.1125191560677507  0.4320236652451240
  0.2077123137367756  0.4484236350613078  0.4314146370176299
  0.1948858480223334  0.7764773206210626  0.4699470627062818
  0.5334784804207732  0.1070721967919678  0.4352175327187204
  0.5319466503475644  0.4541319449392309  0.4640463972469138
  0.5291952090158981  0.7930710315287536  0.4289065677881047
  0.8748775603679582  0.1030415628865013  0.4625172863027116
  0.8555518189151305  0.4325857921777472  0.4269061363843217
  0.8631162562901082  0.7659528629173982  0.4199497996353019
  0.1032514139346135  0.2167744259980193  0.2916740294085283
  0.1078418404162342  0.5635755081354656  0.3250856418768929
  0.1018717701092279  0.8785481761633480  0.3193711609921566
  0.4439403433641941  0.2263563838241482  0.3306609511190801
  0.4359238788393921  0.5434076742919146  0.3243792365999983
  0.4515245732650525  0.9016914235564466  0.2829448232359427
  0.7717454314020372  0.2192924974206704  0.3230899838807826
  0.7683361439534154  0.5519055884278370  0.2893629425729995
  0.7671125909528044  0.8832846731378032  0.3204440547695696
 
  0.30983793E-02 -0.71994666E-03  0.19380476E-03
  0.22864281E-02  0.35214356E-02 -0.30556022E-03
 -0.10480528E-02 -0.19774326E-02  0.64018105E-03
 -0.77193318E-03  0.66485546E-03 -0.45354895E-03
 -0.14718347E-02 -0.85262002E-03  0.43905070E-03
  0.74263079E-04 -0.11435667E-02 -0.11365754E-02
 -0.27228095E-03  0.72054794E-03  0.49531223E-03
 -0.15377777E-02  0.14602587E-02 -0.35790570E-02
  0.21610790E-02  0.44487911E-03  0.95077366E-03
  0.59784912E-03 -0.20365895E-03  0.16754899E-02
 -0.14698914E-02  0.20250034E-02 -0.12214298E-02
 -0.26021114E-02  0.77393314E-03  0.28623196E-02
  0.41307612E-02  0.22746760E-02 -0.28573765E-02
 -0.62556726E-03 -0.43374508E-02  0.14517867E-02
 -0.19115062E-02 -0.18748983E-02 -0.20684251E-02
  0.13797250E-02  0.83362290E-03  0.11344109E-03
  0.11582680E-02  0.59491018E-03  0.28155058E-02
  0.98718772E-03  0.29623129E-02  0.37170900E-02
  0.24515483E-02  0.72775626E-04 -0.19180824E-02
 -0.49100841E-03 -0.19106773E-02  0.46620024E-02
 -0.25655391E-02 -0.14078413E-02  0.65977610E-02
 -0.41144626E-02 -0.12254054E-03 -0.66177515E-03
  0.16731038E-03  0.23692613E-02  0.96375216E-03
 -0.34605363E-02 -0.24487982E-02 -0.32783929E-02
  0.18000448E-02  0.38398479E-02  0.17787660E-02
  0.75115686E-03 -0.23525495E-02  0.28107459E-02
 -0.11356912E-02  0.62663220E-03 -0.32521131E-02
  0.24160934E-02  0.92396147E-03 -0.53427747E-02
 -0.10621819E-02 -0.36030893E-02  0.47729232E-05
 -0.36380215E-02  0.50196426E-02 -0.32286429E-02
  0.35733096E-02  0.64011042E-03  0.19772883E-02
  0.16825140E-04 -0.34013037E-03  0.92784800E-03
 -0.80444969E-03 -0.26786032E-02 -0.34197366E-02
  0.12514683E-02  0.20372544E-02 -0.25307740E-02
  0.10851704E-02 -0.10315686E-02  0.11463243E-03
  0.16447849E-02 -0.13301626E-02  0.33558668E-02
 -0.42325180E-03  0.17936949E-02  0.31395252E-02
 -0.72815949E-03 -0.20402469E-02 -0.38121341E-03
  0.35075399E-02 -0.10753350E-02 -0.10637541E-02
 -0.26469339E-02 -0.10506157E-03 -0.15593268E-02
 -0.12951870E-02 -0.36304072E-02 -0.19661367E-02
  0.47271882E-03  0.84239120E-03  0.43168760E-02
  0.12061579E-02  0.13596560E-02 -0.10271746E-02
  0.19137275E-02  0.21909898E-02 -0.20042137E-02
 -0.16089378E-02  0.16257687E-02  0.83023344E-03
 -0.28523660E-02  0.67385603E-03  0.11761904E-02
 -0.30098837E-03 -0.11376211E-02  0.30179196E-03
 -0.13840713E-02 -0.55798921E-03 -0.93277342E-03
 -0.46759376E-02  0.18838449E-02  0.47898187E-03
 -0.16633221E-03 -0.16624126E-02 -0.23787716E-02
  0.22366994E-03 -0.55941786E-03 -0.10618317E-02
  0.82260086E-04 -0.55632081E-03  0.28516362E-02
 -0.31968405E-02 -0.40018779E-02  0.31347034E-02
  0.15101340E-02 -0.41843712E-02  0.26826802E-02
  0.43072803E-02  0.51264306E-03 -0.24608124E-02
  0.77690764E-03  0.39440533E-02  0.12648725E-02
  0.67813777E-03  0.23337374E-03  0.12680147E-02
 -0.32029943E-02 -0.55699376E-02  0.47567961E-02
  0.14222039E-02  0.24990769E-02  0.65354273E-03
 -0.10812943E-02 -0.11654589E-02 -0.35437723E-02
  0.89641373E-03 -0.48589706E-02 -0.17735829E-02
 -0.60057233E-02  0.23583010E-02  0.21711541E-02
 -0.33579189E-03  0.16060127E-02  0.14029462E-02
 
           1
   1.00000000000000     
  0.10000000E+01  0.00000000E+00  0.00000000E+00  0.00000000E+00
  0.35406861E+00  0.99770435E+00  0.62671029E+00
  0.34479233E+00  0.32930150E+00  0.63437974E+00
  0.35450397E+00  0.67999550E+00  0.65706899E+00
  0.69182110E+00  0.76776747E-02  0.62308994E+00
  0.68799715E+00  0.33419418E+00  0.64154132E+00
  0.67091417E+00  0.66353219E+00  0.63228391E+00
  0.11583910E-01  0.14117528E-02  0.62249334E+00
  0.10248123E-01  0.33500178E+00  0.64739366E+00
  0.16362849E-01  0.67846547E+00  0.64946770E+00
  0.22085465E+00  0.10164450E+00  0.68227469E+00
  0.23941316E+00  0.43992597E+00  0.70473360E+00
  0.25095498E+00  0.79793654E+00  0.70195009E+00
  0.56553267E+00  0.12232868E+00  0.69180109E+00
  0.56404586E+00  0.44231822E+00  0.69626965E+00
  0.58985059E+00  0.79442450E+00  0.69117891E+00
  0.89704749E+00  0.10087424E+00  0.68824054E+00
  0.91030190E+00  0.45018999E+00  0.70959512E+00
  0.90256301E+00  0.79257904E+00  0.69541386E+00
  0.12476448E+00  0.23140285E+00  0.57366815E+00
  0.10753246E+00  0.54968694E+00  0.58762318E+00
  0.12196705E+00  0.86959516E+00  0.57966146E+00
  0.44329271E+00  0.19868838E+00  0.57232154E+00
  0.44200034E+00  0.56145014E+00  0.58556550E+00
  0.46642858E+00  0.87708886E+00  0.57919224E+00
  0.79991253E+00  0.23235894E+00  0.57816956E+00
  0.77521071E+00  0.54756945E+00  0.58842437E+00
  0.79548447E+00  0.87063571E+00  0.56564586E+00
  0.19229607E+00  0.11015739E+00  0.33508420E+00
  0.19872758E+00  0.41729783E+00  0.33863133E+00
  0.23878743E+00  0.78855951E+00  0.30659238E+00
  0.54409195E+00  0.90831632E-01  0.33601888E+00
  0.55737091E+00  0.43807339E+00  0.31102998E+00
  0.54068203E+00  0.77534075E+00  0.32247902E+00
  0.88399431E+00  0.10967052E+00  0.31230656E+00
  0.86504830E+00  0.43857735E+00  0.32593404E+00
  0.86904824E+00  0.75818520E+00  0.32691520E+00
  0.97739640E-01  0.22835402E+00  0.45666992E+00
  0.10122798E+00  0.57852785E+00  0.42771484E+00
  0.94882897E-01  0.87338439E+00  0.41630955E+00
  0.44155099E+00  0.25101860E+00  0.42680917E+00
  0.44528208E+00  0.56382533E+00  0.42036147E+00
  0.40625475E+00  0.89354534E+00  0.45430568E+00
  0.78723865E+00  0.21365429E+00  0.42216049E+00
  0.74045332E+00  0.54471416E+00  0.43738426E+00
  0.75823234E+00  0.90108893E+00  0.42157230E+00
  0.20370626E+00  0.11258591E+00  0.43207071E+00
  0.20763015E+00  0.44831094E+00  0.43142671E+00
  0.19473947E+00  0.77642205E+00  0.46990975E+00
  0.53317064E+00  0.10725881E+00  0.43523669E+00
  0.53185004E+00  0.45396726E+00  0.46395125E+00
  0.52918669E+00  0.79301562E+00  0.42886409E+00
  0.87485706E+00  0.10298645E+00  0.46263135E+00
  0.85507935E+00  0.43218936E+00  0.42703152E+00
  0.86303856E+00  0.76553836E+00  0.42005711E+00
  0.10364632E+00  0.21682521E+00  0.29157560E+00
  0.10810384E+00  0.56396621E+00  0.32513624E+00
  0.10194151E+00  0.87857129E+00  0.31942188E+00
  0.44338968E+00  0.22580462E+00  0.33085122E+00
  0.43616967E+00  0.54365524E+00  0.32440538E+00
  0.45137408E+00  0.90157597E+00  0.28280307E+00
  0.77158167E+00  0.21881116E+00  0.32301904E+00
  0.76793772E+00  0.55213920E+00  0.28944979E+00
  0.76716333E+00  0.88344377E+00  0.32050017E+00
  0.23112161E-03 -0.70429486E-04  0.70628330E-05
  0.36955588E-03  0.34810920E-03 -0.12227293E-04
 -0.18590329E-03 -0.19224709E-03  0.26356758E-04
 -0.33383024E-04  0.66669986E-04 -0.18320854E-04
 -0.16799561E-03 -0.85089168E-04  0.17384657E-04
 -0.50434469E-04 -0.11395768E-03 -0.46078075E-04
  0.12631753E-04  0.72752711E-04  0.19852201E-04
 -0.61366030E-04  0.14243964E-03 -0.14299374E-03
  0.20805418E-03  0.46069413E-04  0.38107884E-04
  0.38500789E-04 -0.22369110E-04  0.64848793E-04
 -0.24163670E-04  0.19995185E-03 -0.46916493E-04
 -0.18352174E-03  0.75775260E-04  0.11444082E-03
  0.46719208E-03  0.23063978E-03 -0.11448825E-03
 -0.26567514E-03 -0.42796949E-03  0.59111948E-04
 -0.26015684E-03 -0.18882927E-03 -0.84751638E-04
  0.15984751E-03  0.82228061E-04  0.45211325E-05
  0.13053731E-03  0.58817809E-04  0.11503517E-03
  0.23214184E-03  0.29479211E-03  0.14951521E-03
  0.21373838E-03  0.53848133E-05 -0.76372403E-04
 -0.13863695E-03 -0.19018749E-03  0.18386450E-03
 -0.28753651E-03 -0.14067092E-03  0.26385501E-03
 -0.36437408E-03 -0.23674508E-04 -0.25269752E-04
  0.13493311E-03  0.23725299E-03  0.38665700E-04
 -0.41488942E-03 -0.24185782E-03 -0.12996977E-03
  0.34479263E-03  0.37759246E-03  0.71033638E-04
 -0.59478391E-04 -0.23145622E-03  0.11553289E-03
 -0.65370405E-04  0.59178334E-04 -0.13180119E-03
  0.24978189E-03  0.91152892E-04 -0.21412172E-03
 -0.26864588E-03 -0.35777695E-03  0.17250836E-05
 -0.60485622E-04  0.49987092E-03 -0.12951743E-03
  0.34134164E-03  0.63813474E-04  0.78567919E-04
 -0.14629478E-04 -0.36364490E-04  0.37084483E-04
 -0.19746956E-03 -0.26628250E-03 -0.13715973E-03
  0.20569116E-03  0.20207644E-03 -0.10079720E-03
  0.36675691E-04 -0.11094579E-03  0.36793684E-05
  0.74840461E-04 -0.13005497E-03  0.13490130E-03
  0.51283887E-04  0.17830423E-03  0.12673069E-03
 -0.16091544E-03 -0.19789703E-03 -0.13553843E-04
  0.24462287E-03 -0.10766732E-03 -0.43753221E-04
 -0.22979318E-03 -0.51922915E-05 -0.61676315E-04
 -0.28953163E-03 -0.36053961E-03 -0.78654387E-04
  0.77760403E-04  0.83702786E-04  0.17388649E-03
  0.17630552E-03  0.13677598E-03 -0.41188956E-04
  0.26942452E-03  0.21685301E-03 -0.80344336E-04
 -0.58197859E-04  0.16300889E-03  0.33746413E-04
 -0.20979439E-03  0.66924043E-04  0.46515076E-04
 -0.78044633E-04 -0.10740324E-03  0.87457660E-05
 -0.13237116E-03 -0.51502715E-04 -0.36256225E-04
 -0.31769060E-03  0.18079402E-03  0.20180171E-04
 -0.96636944E-04 -0.16372111E-03 -0.98341381E-04
 -0.90395455E-05 -0.52639184E-04 -0.41068007E-04
 -0.17796385E-04 -0.54617758E-04  0.11279707E-03
 -0.48425111E-03 -0.41399899E-03  0.12427389E-03
 -0.75247973E-04 -0.41304149E-03  0.10185759E-03
  0.39633772E-03  0.45922390E-04 -0.98300043E-04
  0.26285561E-03  0.39078983E-03  0.49184342E-04
  0.62410208E-04  0.18039096E-04  0.50048893E-04
 -0.54067566E-03 -0.54283631E-03  0.19103482E-03
  0.24429062E-03  0.24483038E-03  0.26835926E-04
 -0.15303302E-03 -0.11194387E-03 -0.14308553E-03
 -0.16068752E-03 -0.46725901E-03 -0.70417408E-04
 -0.40455644E-03  0.23303100E-03  0.89554889E-04
  0.48697928E-04  0.14824970E-03  0.56974812E-04
  0.00000000E+00  0.00000000E+00  0.00000000E+00
  0.00000000E+00  0.00000000E+00  0.00000000E+00
  0.00000000E+00  0.00000000E+00  0.00000000E+00
  0.00000000E+00  0.00000000E+00  0.00000000E+00
  0.00000000E+00  0.00000000E+00  0.00000000E+00
  0.00000000E+00  0.00000000E+00  0.00000000E+00
  0.00000000E+00  0.00000000E+00  0.00000000E+00
  0.00000000E+00  0.00000000E+00  0.00000000E+00
  0.00000000E+00  0.00000000E+00  0.00000000E+00
  0.00000000E+00  0.00000000E+00  0.00000000E+00
  0.00000000E+00  0.00000000E+00  0.00000000E+00
  0.00000000E+00  0.00000000E+00  0.00000000E+00
  0.00000000E+00  0.00000000E+00  0.00000000E+00
  0.00000000E+00  0.00000000E+00  0.00000000E+00
  0.00000000E+00  0.00000000E+00  0.00000000E+00
  0.00000000E+00  0.00000000E+00  0.00000000E+00
  0.00000000E+00  0.00000000E+00  0.00000000E+00
  0.00000000E+00  0.00000000E+00  0.00000000E+00
  0.00000000E+00  0.00000000E+00  0.00000000E+00
  0.00000000E+00  0.00000000E+00  0.00000000E+00
  0.00000000E+00  0.00000000E+00  0.00000000E+00
  0.00000000E+00  0.00000000E+00  0.00000000E+00
  0.00000000E+00  0.00000000E+00  0.00000000E+00
  0.00000000E+00  0.00000000E+00  0.00000000E+00
  0.00000000E+00  0.00000000E+00  0.00000000E+00
  0.00000000E+00  0.00000000E+00  0.00000000E+00
  0.00000000E+00  0.00000000E+00  0.00000000E+00
  0.00000000E+00  0.00000000E+00  0.00000000E+00
  0.00000000E+00  0.00000000E+00  0.00000000E+00
  0.00000000E+00  0.00000000E+00  0.00000000E+00
  0.00000000E+00  0.00000000E+00  0.00000000E+00
  0.00000000E+00  0.00000000E+00  0.00000000E+00
  0.00000000E+00  0.00000000E+00  0.00000000E+00
  0.00000000E+00  0.00000000E+00  0.00000000E+00
  0.00000000E+00  0.00000000E+00  0.00000000E+00
  0.00000000E+00  0.00000000E+00  0.00000000E+00
  0.00000000E+00  0.00000000E+00  0.00000000E+00
  0.00000000E+00  0.00000000E+00  0.00000000E+00
  0.00000000E+00  0.00000000E+00  0.00000000E+00
  0.00000000E+00  0.00000000E+00  0.00000000E+00
  0.00000000E+00  0.00000000E+00  0.00000000E+00
  0.00000000E+00  0.00000000E+00  0.00000000E+00
  0.00000000E+00  0.00000000E+00  0.00000000E+00
  0.00000000E+00  0.00000000E+00  0.00000000E+00
  0.00000000E+00  0.00000000E+00  0.00000000E+00
  0.00000000E+00  0.00000000E+00  0.00000000E+00
  0.00000000E+00  0.00000000E+00  0.00000000E+00
  0.00000000E+00  0.00000000E+00  0.00000000E+00
  0.00000000E+00  0.00000000E+00  0.00000000E+00
  0.00000000E+00  0.00000000E+00  0.00000000E+00
  0.00000000E+00  0.00000000E+00  0.00000000E+00
  0.00000000E+00  0.00000000E+00  0.00000000E+00
  0.00000000E+00  0.00000000E+00  0.00000000E+00
  0.00000000E+00  0.00000000E+00  0.00000000E+00
  0.00000000E+00  0.00000000E+00  0.00000000E+00
  0.00000000E+00  0.00000000E+00  0.00000000E+00
  0.00000000E+00  0.00000000E+00  0.00000000E+00
  0.00000000E+00  0.00000000E+00  0.00000000E+00
  0.00000000E+00  0.00000000E+00  0.00000000E+00
  0.00000000E+00  0.00000000E+00  0.00000000E+00
  0.00000000E+00  0.00000000E+00  0.00000000E+00
  0.00000000E+00  0.00000000E+00  0.00000000E+00
  0.00000000E+00  0.00000000E+00  0.00000000E+00
