Generated by VASPKIT code               
   1.00000000000000     
    11.6564365376424721    0.0000000000000000    0.0000000000000000
    -5.8282182688212361   10.0948036444898790    0.0000000000000000
     0.0000000000000000    0.0000000000000000   25.0000000000000000
   Cd   Cl   Zn   S 
     9    18    18    18
Direct
  0.3333333314934706  0.0000000018398651  0.6283999861871763
  0.3333333314934706  0.3333333351732009  0.6283999861871763
  0.3333333314934706  0.6666666685065366  0.6283999861871763
  0.6666666648267991  0.0000000018398651  0.6283999861871763
  0.6666666648267991  0.3333333351732009  0.6283999861871763
  0.6666666648267991  0.6666666685065366  0.6283999861871763
  0.9999999981601349  0.0000000018398651  0.6283999861871763
  0.9999999981601349  0.3333333351732009  0.6283999861871763
  0.9999999981601349  0.6666666685065366  0.6283999861871763
  0.2222232561051243  0.1111100772283109  0.6864804923948000
  0.2222232561051243  0.4444434105616466  0.6864804923948000
  0.2222232561051243  0.7777767438949752  0.6864804923948000
  0.5555565894384600  0.1111100772283109  0.6864804923948000
  0.5555565894384600  0.4444434105616466  0.6864804923948000
  0.5555565894384600  0.7777767438949752  0.6864804923948000
  0.8888899227717886  0.1111100772283109  0.6864804923948000
  0.8888899227717886  0.4444434105616466  0.6864804923948000
  0.8888899227717886  0.7777767438949752  0.6864804923948000
  0.1111100827534628  0.2222232505797592  0.5709588134690122
  0.1111100827534628  0.5555565839130949  0.5709588134690122
  0.1111100827534628  0.8888899172464306  0.5709588134690122
  0.4444434160867985  0.2222232505797592  0.5709588134690122
  0.4444434160867985  0.5555565839130949  0.5709588134690122
  0.4444434160867985  0.8888899172464306  0.5709588134690122
  0.7777767494201271  0.2222232505797592  0.5709588134690122
  0.7777767494201271  0.5555565839130949  0.5709588134690122
  0.7777767494201271  0.8888899172464306  0.5709588134690122
  0.2222227399041898  0.1111105934299275  0.3443188206983194
  0.2222227399041898  0.4444439267632632  0.3443188206983194
  0.2222227399041898  0.7777772600965918  0.3443188206983194
  0.5555560732375255  0.1111105934299275  0.3443188206983194
  0.5555560732375255  0.4444439267632632  0.3443188206983194
  0.5555560732375255  0.7777772600965918  0.3443188206983194
  0.8888894065708541  0.1111105934299275  0.3443188206983194
  0.8888894065708541  0.4444439267632632  0.3443188206983194
  0.8888894065708541  0.7777772600965918  0.3443188206983194
  0.1111106034014426  0.2222227299310973  0.4267507808654116
  0.1111106034014426  0.5555560632644259  0.4267507808654116
  0.1111106034014426  0.8888893965977616  0.4267507808654116
  0.4444439367347783  0.2222227299310973  0.4267507808654116
  0.4444439367347783  0.5555560632644259  0.4267507808654116
  0.4444439367347783  0.8888893965977616  0.4267507808654116
  0.7777772700681069  0.2222227299310973  0.4267507808654116
  0.7777772700681069  0.5555560632644259  0.4267507808654116
  0.7777772700681069  0.8888893965977616  0.4267507808654116
  0.2222227041910401  0.1111106291431199  0.4482962995455253
  0.2222227041910401  0.4444439624764556  0.4482962995455253
  0.2222227041910401  0.7777772958097913  0.4482962995455253
  0.5555560375243758  0.1111106291431199  0.4482962995455253
  0.5555560375243758  0.4444439624764556  0.4482962995455253
  0.5555560375243758  0.7777772958097913  0.4482962995455253
  0.8888893708577115  0.1111106291431199  0.4482962995455253
  0.8888893708577115  0.4444439624764556  0.4482962995455253
  0.8888893708577115  0.7777772958097913  0.4482962995455253
  0.1111106154846055  0.2222227178479201  0.3225448068397583
  0.1111106154846055  0.5555560511812487  0.3225448068397583
  0.1111106154846055  0.8888893845145844  0.3225448068397583
  0.4444439488179341  0.2222227178479201  0.3225448068397583
  0.4444439488179341  0.5555560511812487  0.3225448068397583
  0.4444439488179341  0.8888893845145844  0.3225448068397583
  0.7777772821512698  0.2222227178479201  0.3225448068397583
  0.7777772821512698  0.5555560511812487  0.3225448068397583
  0.7777772821512698  0.8888893845145844  0.3225448068397583
 
  0.00000000E+00  0.00000000E+00  0.00000000E+00
  0.00000000E+00  0.00000000E+00  0.00000000E+00
  0.00000000E+00  0.00000000E+00  0.00000000E+00
  0.00000000E+00  0.00000000E+00  0.00000000E+00
  0.00000000E+00  0.00000000E+00  0.00000000E+00
  0.00000000E+00  0.00000000E+00  0.00000000E+00
  0.00000000E+00  0.00000000E+00  0.00000000E+00
  0.00000000E+00  0.00000000E+00  0.00000000E+00
  0.00000000E+00  0.00000000E+00  0.00000000E+00
  0.00000000E+00  0.00000000E+00  0.00000000E+00
  0.00000000E+00  0.00000000E+00  0.00000000E+00
  0.00000000E+00  0.00000000E+00  0.00000000E+00
  0.00000000E+00  0.00000000E+00  0.00000000E+00
  0.00000000E+00  0.00000000E+00  0.00000000E+00
  0.00000000E+00  0.00000000E+00  0.00000000E+00
  0.00000000E+00  0.00000000E+00  0.00000000E+00
  0.00000000E+00  0.00000000E+00  0.00000000E+00
  0.00000000E+00  0.00000000E+00  0.00000000E+00
  0.00000000E+00  0.00000000E+00  0.00000000E+00
  0.00000000E+00  0.00000000E+00  0.00000000E+00
  0.00000000E+00  0.00000000E+00  0.00000000E+00
  0.00000000E+00  0.00000000E+00  0.00000000E+00
  0.00000000E+00  0.00000000E+00  0.00000000E+00
  0.00000000E+00  0.00000000E+00  0.00000000E+00
  0.00000000E+00  0.00000000E+00  0.00000000E+00
  0.00000000E+00  0.00000000E+00  0.00000000E+00
  0.00000000E+00  0.00000000E+00  0.00000000E+00
  0.00000000E+00  0.00000000E+00  0.00000000E+00
  0.00000000E+00  0.00000000E+00  0.00000000E+00
  0.00000000E+00  0.00000000E+00  0.00000000E+00
  0.00000000E+00  0.00000000E+00  0.00000000E+00
  0.00000000E+00  0.00000000E+00  0.00000000E+00
  0.00000000E+00  0.00000000E+00  0.00000000E+00
  0.00000000E+00  0.00000000E+00  0.00000000E+00
  0.00000000E+00  0.00000000E+00  0.00000000E+00
  0.00000000E+00  0.00000000E+00  0.00000000E+00
  0.00000000E+00  0.00000000E+00  0.00000000E+00
  0.00000000E+00  0.00000000E+00  0.00000000E+00
  0.00000000E+00  0.00000000E+00  0.00000000E+00
  0.00000000E+00  0.00000000E+00  0.00000000E+00
  0.00000000E+00  0.00000000E+00  0.00000000E+00
  0.00000000E+00  0.00000000E+00  0.00000000E+00
  0.00000000E+00  0.00000000E+00  0.00000000E+00
  0.00000000E+00  0.00000000E+00  0.00000000E+00
  0.00000000E+00  0.00000000E+00  0.00000000E+00
  0.00000000E+00  0.00000000E+00  0.00000000E+00
  0.00000000E+00  0.00000000E+00  0.00000000E+00
  0.00000000E+00  0.00000000E+00  0.00000000E+00
  0.00000000E+00  0.00000000E+00  0.00000000E+00
  0.00000000E+00  0.00000000E+00  0.00000000E+00
  0.00000000E+00  0.00000000E+00  0.00000000E+00
  0.00000000E+00  0.00000000E+00  0.00000000E+00
  0.00000000E+00  0.00000000E+00  0.00000000E+00
  0.00000000E+00  0.00000000E+00  0.00000000E+00
  0.00000000E+00  0.00000000E+00  0.00000000E+00
  0.00000000E+00  0.00000000E+00  0.00000000E+00
  0.00000000E+00  0.00000000E+00  0.00000000E+00
  0.00000000E+00  0.00000000E+00  0.00000000E+00
  0.00000000E+00  0.00000000E+00  0.00000000E+00
  0.00000000E+00  0.00000000E+00  0.00000000E+00
  0.00000000E+00  0.00000000E+00  0.00000000E+00
  0.00000000E+00  0.00000000E+00  0.00000000E+00
  0.00000000E+00  0.00000000E+00  0.00000000E+00
