CdCl2                                   
   1.00000000000000     
     3.8722334643340415    0.0000000000000000    0.0000000000000000
    -1.9361167321670207    3.3534525494852341    0.0000000000000000
     0.0000000000000000    0.0000000000000000   17.8756999968999999
   Cd   Cl
     1     2
Direct
 -0.0000000000000000 -0.0000000000000000  0.4999999999748255
  0.6666666866674831  0.3333333433318941  0.5813707094643473
  0.3333333135051504  0.6666666567569379  0.4186292905412449
 
  0.00000000E+00  0.00000000E+00  0.00000000E+00
  0.00000000E+00  0.00000000E+00  0.00000000E+00
  0.00000000E+00  0.00000000E+00  0.00000000E+00
