CdCl2
1.0
        3.8996000290         0.0000000000         0.0000000000
       -1.9498000145         3.3771526897         0.0000000000
        0.0000000000         0.0000000000        17.8756999969
   Cd   Cl
    1    2
Cartesian
     0.000000000         0.000000000         8.937849998
     1.949800073         1.125717597        10.375771306
    -0.000000058         2.251435093         7.499928691
