cif2pos.py                              
   1.00000000000000     
    10.0000000000000000    0.0000000000000000    0.0000000000000000
     0.0000000000000000   10.0000000000000000    0.0000000000000000
     0.0000000000000000    0.0000000000000000   10.0000000000000000
   S 
     8
Direct
  0.6061899999999980  0.2436300000000031  0.5000000000000000
  0.3938100000000020  0.7563699999999969  0.5000000000000000
  0.7563699999999969  0.6061899999999980  0.5000000000000000
  0.2436300000000031  0.3938100000000020  0.5000000000000000
  0.3938100000000020  0.2436300000000031  0.5000000000000000
  0.6061899999999980  0.7563699999999969  0.5000000000000000
  0.2436300000000031  0.6061899999999980  0.5000000000000000
  0.7563699999999969  0.3938100000000020  0.5000000000000000
 
  0.00000000E+00  0.00000000E+00  0.00000000E+00
  0.00000000E+00  0.00000000E+00  0.00000000E+00
  0.00000000E+00  0.00000000E+00  0.00000000E+00
  0.00000000E+00  0.00000000E+00  0.00000000E+00
  0.00000000E+00  0.00000000E+00  0.00000000E+00
  0.00000000E+00  0.00000000E+00  0.00000000E+00
  0.00000000E+00  0.00000000E+00  0.00000000E+00
  0.00000000E+00  0.00000000E+00  0.00000000E+00
