cif2pos.py                              
   1.00000000000000     
    11.6563999999999997    0.0000000000000000    0.0000000000000000
    -5.8282323800000002   10.0948352900000007    0.0000000000000000
     0.0000000000000000    0.0000000000000000   25.0000000000000000
   Cd   Cl   Zn   S 
     9    18    18    17
Direct
  0.3332490387141953 -0.0001682952963406  0.6286021750021789
  0.3334891980677349  0.3334114331429293  0.6284715764348952
  0.3332487644422041  0.6667512355577959  0.6286023659487988
  0.6665452401300257 -0.0000610642491488  0.6279718704114278
  0.6665891640525711  0.3334108359474290  0.6284710447380244
  0.6665885668570708  0.6665108019322650  0.6284715764348952
  0.0000607052515984 -0.0000607052515984  0.6279721994103811
  0.0000610642491488  0.3334547598699741  0.6279718704114278
  0.0001682952963406  0.6667509612858047  0.6286021750021789
  0.2215985387116909  0.1106010188827404  0.6862649787090139
  0.2215980903467654  0.4443313707069298  0.6862650182857837
  0.2222217698990383  0.7777782301009618  0.6867151161830466
  0.5556693852177811  0.1106006872145430  0.6862647866801781
  0.5555558581060764  0.4444441418939236  0.6865933378528664
  0.5556686292930703  0.7784019096532345  0.6862650182857837
  0.8888888587544703  0.1111111412455298  0.6860582230673861
  0.8893993127854573  0.4443306147822186  0.6862647866801781
  0.8893989811172596  0.7784014612883091  0.6862649787090139
  0.1115699287483091  0.2224514416234341  0.5708554155257844
  0.1120526856970067  0.5574387348993427  0.5704232536500911
  0.1120522973253281  0.8879477026746717  0.5704233634581288
  0.4443844843829823  0.2221021514293041  0.5712067151909088
  0.4443842589281147  0.5556157410718854  0.5712068770311668
  0.4425612651006573  0.8879473143029930  0.5704232536500911
  0.7775491395157372  0.2224508604842626  0.5708551922655981
  0.7778978485706960  0.5556155156170177  0.5712067151909088
  0.7775485583765658  0.8884300712516912  0.5708554155257844
  0.2208455558109726  0.1070955831185006  0.3441276326628835
  0.2208460123436352  0.4470837326751379  0.3441277464951885
  0.2222221408168152  0.7777778591831848  0.3592405469380893
  0.5529176283611379  0.1070965235239993  0.3441276364369403
  0.5555555395998559  0.4444444604001440  0.3436637110507751
  0.5529162673248620  0.7791539876563647  0.3441277464951885
  0.8888889373651444  0.1111110626348556  0.3443827754825127
  0.8929034764760005  0.4470823716388620  0.3441276364369403
  0.8929044168814992  0.7791544441890271  0.3441276326628835
  0.1117668946589620  0.2225499539336990  0.4271633770162953
  0.1212344337140449  0.5758019314095633  0.4237787640372342
  0.1212342232322218  0.8787657767677781  0.4237789273768201
  0.4442255196910182  0.2217838058534317  0.4270223115327009
  0.4442250653375326  0.5557749346624676  0.4270225154275142
  0.4241980685904364  0.8787655662859550  0.4237787640372342
  0.7774504015768828  0.2225495984231173  0.4271635121829148
  0.7782161941465682  0.5557744803089819  0.4270223115327009
  0.7774500460663010  0.8882331053410378  0.4271633770162953
  0.2207818081687821  0.1038208359813099  0.4472543212327258
  0.2207816727444437  0.4502939272794071  0.4472540461112553
  0.5497065323406911  0.1038206803175907  0.4472542390804312
  0.5555559806657413  0.4444440193342588  0.4487706062778774
  0.5497060727205927  0.7792183272555561  0.4472540461112553
  0.8888889679802874  0.1111110320197128  0.4493663952331129
  0.8961793196824094  0.4502934676593091  0.4472542390804312
  0.8961791640186901  0.7792181918312179  0.4472543212327258
  0.1118820485051235  0.2226078893052154  0.3244300653760538
  0.1148718302886832  0.5630773459991103  0.3207312144824478
  0.1148719482256133  0.8851280517743867  0.3207310464814773
  0.4442237767931450  0.2217808994452923  0.3229661239948640
  0.4442235511895344  0.5557764488104656  0.3229659214716316
  0.4369226540008895  0.8851281697113167  0.3207312144824478
  0.7773927114940933  0.2226072885059068  0.3244297854233665
  0.7782191005547077  0.5557762232068547  0.3229661239948640
  0.7773921106947848  0.8881179514948765  0.3244300653760538
 
  0.00000000E+00  0.00000000E+00  0.00000000E+00
  0.00000000E+00  0.00000000E+00  0.00000000E+00
  0.00000000E+00  0.00000000E+00  0.00000000E+00
  0.00000000E+00  0.00000000E+00  0.00000000E+00
  0.00000000E+00  0.00000000E+00  0.00000000E+00
  0.00000000E+00  0.00000000E+00  0.00000000E+00
  0.00000000E+00  0.00000000E+00  0.00000000E+00
  0.00000000E+00  0.00000000E+00  0.00000000E+00
  0.00000000E+00  0.00000000E+00  0.00000000E+00
  0.00000000E+00  0.00000000E+00  0.00000000E+00
  0.00000000E+00  0.00000000E+00  0.00000000E+00
  0.00000000E+00  0.00000000E+00  0.00000000E+00
  0.00000000E+00  0.00000000E+00  0.00000000E+00
  0.00000000E+00  0.00000000E+00  0.00000000E+00
  0.00000000E+00  0.00000000E+00  0.00000000E+00
  0.00000000E+00  0.00000000E+00  0.00000000E+00
  0.00000000E+00  0.00000000E+00  0.00000000E+00
  0.00000000E+00  0.00000000E+00  0.00000000E+00
  0.00000000E+00  0.00000000E+00  0.00000000E+00
  0.00000000E+00  0.00000000E+00  0.00000000E+00
  0.00000000E+00  0.00000000E+00  0.00000000E+00
  0.00000000E+00  0.00000000E+00  0.00000000E+00
  0.00000000E+00  0.00000000E+00  0.00000000E+00
  0.00000000E+00  0.00000000E+00  0.00000000E+00
  0.00000000E+00  0.00000000E+00  0.00000000E+00
  0.00000000E+00  0.00000000E+00  0.00000000E+00
  0.00000000E+00  0.00000000E+00  0.00000000E+00
  0.00000000E+00  0.00000000E+00  0.00000000E+00
  0.00000000E+00  0.00000000E+00  0.00000000E+00
  0.00000000E+00  0.00000000E+00  0.00000000E+00
  0.00000000E+00  0.00000000E+00  0.00000000E+00
  0.00000000E+00  0.00000000E+00  0.00000000E+00
  0.00000000E+00  0.00000000E+00  0.00000000E+00
  0.00000000E+00  0.00000000E+00  0.00000000E+00
  0.00000000E+00  0.00000000E+00  0.00000000E+00
  0.00000000E+00  0.00000000E+00  0.00000000E+00
  0.00000000E+00  0.00000000E+00  0.00000000E+00
  0.00000000E+00  0.00000000E+00  0.00000000E+00
  0.00000000E+00  0.00000000E+00  0.00000000E+00
  0.00000000E+00  0.00000000E+00  0.00000000E+00
  0.00000000E+00  0.00000000E+00  0.00000000E+00
  0.00000000E+00  0.00000000E+00  0.00000000E+00
  0.00000000E+00  0.00000000E+00  0.00000000E+00
  0.00000000E+00  0.00000000E+00  0.00000000E+00
  0.00000000E+00  0.00000000E+00  0.00000000E+00
  0.00000000E+00  0.00000000E+00  0.00000000E+00
  0.00000000E+00  0.00000000E+00  0.00000000E+00
  0.00000000E+00  0.00000000E+00  0.00000000E+00
  0.00000000E+00  0.00000000E+00  0.00000000E+00
  0.00000000E+00  0.00000000E+00  0.00000000E+00
  0.00000000E+00  0.00000000E+00  0.00000000E+00
  0.00000000E+00  0.00000000E+00  0.00000000E+00
  0.00000000E+00  0.00000000E+00  0.00000000E+00
  0.00000000E+00  0.00000000E+00  0.00000000E+00
  0.00000000E+00  0.00000000E+00  0.00000000E+00
  0.00000000E+00  0.00000000E+00  0.00000000E+00
  0.00000000E+00  0.00000000E+00  0.00000000E+00
  0.00000000E+00  0.00000000E+00  0.00000000E+00
  0.00000000E+00  0.00000000E+00  0.00000000E+00
  0.00000000E+00  0.00000000E+00  0.00000000E+00
  0.00000000E+00  0.00000000E+00  0.00000000E+00
  0.00000000E+00  0.00000000E+00  0.00000000E+00
