cif2pos.py                              
   1.00000000000000     
    11.6563999999999997    0.0000000000000000    0.0000000000000000
    -5.8282323800000002   10.0948352900000007    0.0000000000000000
     0.0000000000000000    0.0000000000000000   25.0000000000000000
   Cd   Cl   Zn   S 
     9    18    18    17
Direct
  0.3333654229618546  0.0000161942635160  0.6284866177181669
  0.3335217359509315  0.3337096976016483  0.6284042123220104
  0.3335212261150531  0.6664787738849469  0.6284046980639957
  0.6666723581851386  0.0000111813853820  0.6286155537738622
  0.6666726554253799  0.3333273445746201  0.6286152753474141
  0.6662903023983517  0.6664782640490685  0.6284042123220104
  0.9999840203711869  0.0000159796288131  0.6284864072349521
  0.9999888186146180  0.3333276418148614  0.6286155537738622
  0.9999838057364840  0.6666345770381454  0.6284866177181669
  0.2223794226185873  0.1114254385154894  0.6863545859439881
  0.2219182882212607  0.4442925669546085  0.6865962646646224
  0.2223788682673984  0.7776211317326016  0.6863548198969980
  0.5555820218539651  0.1111243478077668  0.6865358772399617
  0.5557077441575444  0.4442922558424556  0.6865960109552418
  0.5557074330453915  0.7780817117787393  0.6865962646646224
  0.8888759119270162  0.1111240880729838  0.6865359271131908
  0.8888756521922332  0.4444179781460349  0.6865358772399617
  0.8885745614845106  0.7776205773814127  0.6863545859439881
  0.1107997334905519  0.2221640947609131  0.5710396116770937
  0.1107995367286492  0.5553022997371500  0.5710398047774135
  0.1111111166883276  0.8888888833116724  0.5711400349856177
  0.4446982153830348  0.2221638578397531  0.5710395585304084
  0.4444443874333288  0.5555556125666712  0.5714059453714668
  0.4446977002628500  0.8892004632713508  0.5710398047774135
  0.7777781494809233  0.2222218505190767  0.5709755989768865
  0.7778361421602469  0.5553017846169652  0.5710395585304084
  0.7778359052390869  0.8892002665094481  0.5710396116770937
  0.2224401276494845  0.1115470802929082  0.3440158285594919
  0.2408914454201110  0.4537798667913577  0.3480899023958983
  0.2224395736734976  0.7775604263265024  0.3440156697182815
  0.5553425351082737  0.1110043751044856  0.3436789270450973
  0.5462230741840557  0.4537769258159443  0.3480904754317535
  0.5462201332086423  0.7591085545798890  0.3480899023958983
  0.8889956548849298  0.1110043451150702  0.3436787400087198
  0.8889956248955144  0.4446574648917263  0.3436789270450973
  0.8884529197070918  0.7775598723505155  0.3440158285594919
  0.1137005603119761  0.2261699323967648  0.4271516269705842
  0.1137018222732209  0.5541981508314890  0.4271518045902027
  0.1111109621068920  0.8888890378931080  0.4271632172833080
  0.4458027386143399  0.2261694705786681  0.4271519249170268
  0.4444444838696242  0.5555555161303758  0.4114780539750740
  0.4458018491685110  0.8862981777267791  0.4271518045902027
  0.7777781168258144  0.2222218831741856  0.4266515219678908
  0.7738305294213319  0.5541972613856601  0.4271519249170268
  0.7738300676032352  0.8862994396880239  0.4271516269705842
  0.2224422436980120  0.1115507199533425  0.4478058645904213
  0.2297073997776025  0.4481869108299819  0.4503300560021444
  0.2224420172356218  0.7775579827643782  0.4478060479784247
  0.5548398321062393  0.1107526889307735  0.4463400211384823
  0.5518133089457251  0.4481866910542749  0.4503296827215735
  0.5518130891700181  0.7702926002223975  0.4503300560021444
  0.8892471375108499  0.1107528624891501  0.4463401845177586
  0.8892473110692265  0.4451601678937607  0.4463400211384823
  0.8884492800466575  0.7775577563019880  0.4478058645904213
  0.1169212704256566  0.2295218141555750  0.3234949522806687
  0.1169209350249503  0.5540667946671718  0.3234949984387612
  0.1111106781339899  0.8888893218660101  0.3217999733940076
  0.4459336084718402  0.2295206796313494  0.3234947766356058
  0.4459332053328282  0.8830790649750497  0.3234949984387612
  0.7777778215172475  0.2222221784827525  0.3207961746336920
  0.7704793203686506  0.5540663915281598  0.3234947766356058
  0.7704781858444250  0.8830787295743434  0.3234949522806687
 
  0.00000000E+00  0.00000000E+00  0.00000000E+00
  0.00000000E+00  0.00000000E+00  0.00000000E+00
  0.00000000E+00  0.00000000E+00  0.00000000E+00
  0.00000000E+00  0.00000000E+00  0.00000000E+00
  0.00000000E+00  0.00000000E+00  0.00000000E+00
  0.00000000E+00  0.00000000E+00  0.00000000E+00
  0.00000000E+00  0.00000000E+00  0.00000000E+00
  0.00000000E+00  0.00000000E+00  0.00000000E+00
  0.00000000E+00  0.00000000E+00  0.00000000E+00
  0.00000000E+00  0.00000000E+00  0.00000000E+00
  0.00000000E+00  0.00000000E+00  0.00000000E+00
  0.00000000E+00  0.00000000E+00  0.00000000E+00
  0.00000000E+00  0.00000000E+00  0.00000000E+00
  0.00000000E+00  0.00000000E+00  0.00000000E+00
  0.00000000E+00  0.00000000E+00  0.00000000E+00
  0.00000000E+00  0.00000000E+00  0.00000000E+00
  0.00000000E+00  0.00000000E+00  0.00000000E+00
  0.00000000E+00  0.00000000E+00  0.00000000E+00
  0.00000000E+00  0.00000000E+00  0.00000000E+00
  0.00000000E+00  0.00000000E+00  0.00000000E+00
  0.00000000E+00  0.00000000E+00  0.00000000E+00
  0.00000000E+00  0.00000000E+00  0.00000000E+00
  0.00000000E+00  0.00000000E+00  0.00000000E+00
  0.00000000E+00  0.00000000E+00  0.00000000E+00
  0.00000000E+00  0.00000000E+00  0.00000000E+00
  0.00000000E+00  0.00000000E+00  0.00000000E+00
  0.00000000E+00  0.00000000E+00  0.00000000E+00
  0.00000000E+00  0.00000000E+00  0.00000000E+00
  0.00000000E+00  0.00000000E+00  0.00000000E+00
  0.00000000E+00  0.00000000E+00  0.00000000E+00
  0.00000000E+00  0.00000000E+00  0.00000000E+00
  0.00000000E+00  0.00000000E+00  0.00000000E+00
  0.00000000E+00  0.00000000E+00  0.00000000E+00
  0.00000000E+00  0.00000000E+00  0.00000000E+00
  0.00000000E+00  0.00000000E+00  0.00000000E+00
  0.00000000E+00  0.00000000E+00  0.00000000E+00
  0.00000000E+00  0.00000000E+00  0.00000000E+00
  0.00000000E+00  0.00000000E+00  0.00000000E+00
  0.00000000E+00  0.00000000E+00  0.00000000E+00
  0.00000000E+00  0.00000000E+00  0.00000000E+00
  0.00000000E+00  0.00000000E+00  0.00000000E+00
  0.00000000E+00  0.00000000E+00  0.00000000E+00
  0.00000000E+00  0.00000000E+00  0.00000000E+00
  0.00000000E+00  0.00000000E+00  0.00000000E+00
  0.00000000E+00  0.00000000E+00  0.00000000E+00
  0.00000000E+00  0.00000000E+00  0.00000000E+00
  0.00000000E+00  0.00000000E+00  0.00000000E+00
  0.00000000E+00  0.00000000E+00  0.00000000E+00
  0.00000000E+00  0.00000000E+00  0.00000000E+00
  0.00000000E+00  0.00000000E+00  0.00000000E+00
  0.00000000E+00  0.00000000E+00  0.00000000E+00
  0.00000000E+00  0.00000000E+00  0.00000000E+00
  0.00000000E+00  0.00000000E+00  0.00000000E+00
  0.00000000E+00  0.00000000E+00  0.00000000E+00
  0.00000000E+00  0.00000000E+00  0.00000000E+00
  0.00000000E+00  0.00000000E+00  0.00000000E+00
  0.00000000E+00  0.00000000E+00  0.00000000E+00
  0.00000000E+00  0.00000000E+00  0.00000000E+00
  0.00000000E+00  0.00000000E+00  0.00000000E+00
  0.00000000E+00  0.00000000E+00  0.00000000E+00
  0.00000000E+00  0.00000000E+00  0.00000000E+00
  0.00000000E+00  0.00000000E+00  0.00000000E+00
