cif2pos.py                              
   1.00000000000000     
    11.6563999999999997    0.0000000000000000    0.0000000000000000
    -5.8282323800000002   10.0948352900000007    0.0000000000000000
     0.0000000000000000    0.0000000000000000   25.0000000000000000
   Cd   Cl   Zn   S 
     9    18    18    16
Direct
  0.3336572504863469  0.0001287268629113  0.6269888007643090
  0.3335828488440100  0.3334582619554567  0.6258837655063587
  0.3336573550897057  0.6668619719783919  0.6269888842183562
  0.6669103046822826  0.0001221379472511  0.6286573133588504
  0.6669354047067344  0.3335430172295233  0.6284889302251102
  0.6669355331622242  0.6667263907765175  0.6284890385439965
  0.9999009049347691  0.9997303498784831  0.6272091494379808
  0.9999007472784029  0.3335042438963001  0.6272090827518468
  0.9998796316473033  0.6666065997117272  0.6283610677694540
  0.2230250101070723  0.1121562045508568  0.6846529443704412
  0.2230249048336503  0.4442020533812041  0.6846529033611048
  0.2240284770397025  0.7786809249222557  0.6852041373617652
  0.5545338179213388  0.1104131707876164  0.6860284536743961
  0.5536268341701103  0.4434802495693404  0.6855266672215237
  0.5545340719762351  0.7774547012192201  0.6860284177520839
  0.8897153911393687  0.1115247191717330  0.6855634383622231
  0.8893547715542454  0.4438477178180875  0.6861824944248411
  0.8893551071996839  0.7788410344470265  0.6861824849849896
  0.1100083059796262  0.2216708749263532  0.5696746067747611
  0.1105978955250890  0.5560117710688601  0.5703469646381620
  0.1105978032080657  0.8879195611891575  0.5703468893286683
  0.4466801457535041  0.2217594735124422  0.5694662422538741
  0.4466804299164195  0.5582545630087665  0.5694662157326320
  0.4476214960824123  0.8904774837817442  0.5690130883490099
  0.7758197654788859  0.2213674219087878  0.5703007884306359
  0.7781709876388163  0.5557525955173475  0.5711887495625732
  0.7758199621685691  0.8877863172420035  0.5703007897262324
  0.2235734924818615  0.1118522644749049  0.3442774937434265
  0.2235716297089922  0.4450534441608909  0.3442785221738518
  0.2303200669230989  0.7818263996198596  0.3448738671496159
  0.5561375649905145  0.1090091926724881  0.3609808208797745
  0.5571235695149568  0.4452292437345591  0.3417264574033538
  0.5561372193076082  0.7804613609306372  0.3609806468493559
  0.8809450737446198  0.1071369376218669  0.3442769878112699
  0.8866680776487783  0.4384227494937747  0.3442954690296673
  0.8866680215348026  0.7815791945010275  0.3442956155665371
  0.1081392885117722  0.2207356081199237  0.4281978953145682
  0.1124895340686365  0.5567644260154765  0.4273098035121166
  0.1124892771133332  0.8890585403168529  0.4273095821770241
  0.4507749879547518  0.2225009551210206  0.4230199512067188
  0.4507752540570422  0.5616064805076277  0.4230198655341439
  0.4667847074529092  0.9000615188472381  0.4241065148426699
  0.7525682178987623  0.2082873850540565  0.4260225982969246
  0.7809363539062630  0.5571351840745820  0.4260214578406121
  0.7525605615713289  0.8776104256717900  0.4260243985000898
  0.2281988552396967  0.1129428041688456  0.4489142229033334
  0.2281981427092461  0.4485876381858063  0.4489141444388380
  0.2360906707176937  0.7847114534343973  0.4474108724958938
  0.5578730878660849  0.4456024046523339  0.4482151021372403
  0.8764197174595196  0.1048752631607783  0.4467524689866025
  0.8841451115491665  0.4370943795690891  0.4470412801642070
  0.8841443955180139  0.7803840282578349  0.4470408555220473
  0.1082357022748468  0.2207843896020734  0.3259972714389292
  0.1119094660498092  0.5567315980467953  0.3247091351736060
  0.1119092948966269  0.8885117259629638  0.3247091142663763
  0.4481092385003294  0.2191642001601934  0.3236177516344370
  0.4481081817298218  0.5622788814013191  0.3236182058755830
  0.4527300520663502  0.8930319707245999  0.3225968670421366
  0.7695635277707424  0.2179108578288407  0.3206879548501576
  0.7804644811921051  0.5568993577278505  0.3229076756603675
  0.7695620175453612  0.8849851979183327  0.3206868206923872
 
  0.00000000E+00  0.00000000E+00  0.00000000E+00
  0.00000000E+00  0.00000000E+00  0.00000000E+00
  0.00000000E+00  0.00000000E+00  0.00000000E+00
  0.00000000E+00  0.00000000E+00  0.00000000E+00
  0.00000000E+00  0.00000000E+00  0.00000000E+00
  0.00000000E+00  0.00000000E+00  0.00000000E+00
  0.00000000E+00  0.00000000E+00  0.00000000E+00
  0.00000000E+00  0.00000000E+00  0.00000000E+00
  0.00000000E+00  0.00000000E+00  0.00000000E+00
  0.00000000E+00  0.00000000E+00  0.00000000E+00
  0.00000000E+00  0.00000000E+00  0.00000000E+00
  0.00000000E+00  0.00000000E+00  0.00000000E+00
  0.00000000E+00  0.00000000E+00  0.00000000E+00
  0.00000000E+00  0.00000000E+00  0.00000000E+00
  0.00000000E+00  0.00000000E+00  0.00000000E+00
  0.00000000E+00  0.00000000E+00  0.00000000E+00
  0.00000000E+00  0.00000000E+00  0.00000000E+00
  0.00000000E+00  0.00000000E+00  0.00000000E+00
  0.00000000E+00  0.00000000E+00  0.00000000E+00
  0.00000000E+00  0.00000000E+00  0.00000000E+00
  0.00000000E+00  0.00000000E+00  0.00000000E+00
  0.00000000E+00  0.00000000E+00  0.00000000E+00
  0.00000000E+00  0.00000000E+00  0.00000000E+00
  0.00000000E+00  0.00000000E+00  0.00000000E+00
  0.00000000E+00  0.00000000E+00  0.00000000E+00
  0.00000000E+00  0.00000000E+00  0.00000000E+00
  0.00000000E+00  0.00000000E+00  0.00000000E+00
  0.00000000E+00  0.00000000E+00  0.00000000E+00
  0.00000000E+00  0.00000000E+00  0.00000000E+00
  0.00000000E+00  0.00000000E+00  0.00000000E+00
  0.00000000E+00  0.00000000E+00  0.00000000E+00
  0.00000000E+00  0.00000000E+00  0.00000000E+00
  0.00000000E+00  0.00000000E+00  0.00000000E+00
  0.00000000E+00  0.00000000E+00  0.00000000E+00
  0.00000000E+00  0.00000000E+00  0.00000000E+00
  0.00000000E+00  0.00000000E+00  0.00000000E+00
  0.00000000E+00  0.00000000E+00  0.00000000E+00
  0.00000000E+00  0.00000000E+00  0.00000000E+00
  0.00000000E+00  0.00000000E+00  0.00000000E+00
  0.00000000E+00  0.00000000E+00  0.00000000E+00
  0.00000000E+00  0.00000000E+00  0.00000000E+00
  0.00000000E+00  0.00000000E+00  0.00000000E+00
  0.00000000E+00  0.00000000E+00  0.00000000E+00
  0.00000000E+00  0.00000000E+00  0.00000000E+00
  0.00000000E+00  0.00000000E+00  0.00000000E+00
  0.00000000E+00  0.00000000E+00  0.00000000E+00
  0.00000000E+00  0.00000000E+00  0.00000000E+00
  0.00000000E+00  0.00000000E+00  0.00000000E+00
  0.00000000E+00  0.00000000E+00  0.00000000E+00
  0.00000000E+00  0.00000000E+00  0.00000000E+00
  0.00000000E+00  0.00000000E+00  0.00000000E+00
  0.00000000E+00  0.00000000E+00  0.00000000E+00
  0.00000000E+00  0.00000000E+00  0.00000000E+00
  0.00000000E+00  0.00000000E+00  0.00000000E+00
  0.00000000E+00  0.00000000E+00  0.00000000E+00
  0.00000000E+00  0.00000000E+00  0.00000000E+00
  0.00000000E+00  0.00000000E+00  0.00000000E+00
  0.00000000E+00  0.00000000E+00  0.00000000E+00
  0.00000000E+00  0.00000000E+00  0.00000000E+00
  0.00000000E+00  0.00000000E+00  0.00000000E+00
  0.00000000E+00  0.00000000E+00  0.00000000E+00
