K-Spacing Value to Generate K-Mesh: 0.020
0
Monkhorst-Pack
  18  18   1
0.0  0.0  0.0
