cif2pos.py
1.0
     3.92290000     0.00000000     0.00000000
    -1.96145000     3.39733106     0.00000000
     0.00000000     0.00000000    25.00000000
  Cd  Cl  Zn  S
  1  2  2  2
Direct
     0.00000000     0.00000000     0.62524000
     0.66667000     0.33333000     0.68275000
     0.33333000     0.66667000     0.56772000
     0.66667000     0.33333000     0.34717000
     0.33333000     0.66667000     0.42885000
     0.66667000     0.33333000     0.45042000
     0.33333000     0.66667000     0.32560000
