cif2pos.py
1.0
     2.66490000     0.00000000     0.00000000
    -1.33245000     2.30787110     0.00000000
     0.00000000     0.00000000     4.94680000
  Zn
  2
Direct
     0.33333000     0.66667000     0.25000000
     0.66667000     0.33333000     0.75000000
