cif2pos.py                              
   1.00000000000000     
    11.6563999999999997    0.0000000000000000    0.0000000000000000
    -5.8282323800000002   10.0948352900000007    0.0000000000000000
     0.0000000000000000    0.0000000000000000   25.0000000000000000
   Cd   Cl   Zn   S 
     9    18    18    16
Direct
  0.3335849937894175  0.0004940352013537  0.6282234490054380
  0.3343798511271743  0.3338078362156999  0.6302003144672468
  0.3335463427187468  0.6667033253842664  0.6283939936149543
  0.6671007787725274  0.0005745777763856  0.6296795860411293
  0.6668664329342057  0.3329104967700926  0.6290801369813704
  0.6666651208790916  0.6669849045027216  0.6284197109106708
  0.9994007323667629  0.0002106402959018  0.6294135430602488
  0.0000540810783577  0.3336557816805577  0.6296252488414694
  0.9998789793190657  0.6669600100605403  0.6269871073701199
  0.2228552163638697  0.1113553652146805  0.6870066028746959
  0.2228676833285251  0.4455416267193755  0.6873287724586652
  0.2209016839290531  0.7774366411149467  0.6857073184322793
  0.5550722478158902  0.1117529028352337  0.6872955868261832
  0.5565716243072916  0.4452787618017270  0.6871885390374949
  0.5552390259448087  0.7764285447199644  0.6867955041277133
  0.8903791266728026  0.1116031298720446  0.6874490933428095
  0.8893218235422515  0.4465877474209196  0.6865078542392878
  0.8881935981288452  0.7760897602803981  0.6864191539279537
  0.1138260372443752  0.2250182916355047  0.5711871789950500
  0.1109617396237148  0.5524566141944542  0.5710285804118471
  0.1095716393882505  0.8921547879091843  0.5716302956261546
  0.4456274672640403  0.2240631517196336  0.5709073693632416
  0.4435531193282112  0.5529032760672857  0.5707680847747661
  0.4467971445009782  0.8904232211230309  0.5723555568602490
  0.7788089092839119  0.2218555211548156  0.5718791959416982
  0.7749878885056185  0.5537291821382988  0.5705688637876809
  0.7780286024194102  0.8902917694398952  0.5714028533202588
  0.2363859946781961  0.1295501248601588  0.3428913179825338
  0.2158656470791763  0.4283294989754748  0.3257061898677033
  0.2244807838159612  0.7833419052211393  0.3277769756544321
  0.5576800157670793  0.1152339201315459  0.3439085647981575
  0.5632228845238009  0.4343623410692607  0.3453114382176349
  0.5533547071532730  0.7695547071613283  0.3494326114069879
  0.9089507919254811  0.1151953214144935  0.3444621257497082
  0.8742367560856925  0.4377368084234142  0.3418098507370625
  0.8780613108039613  0.7592488285923763  0.3468836067419453
  0.1655069224695838  0.2858221915051596  0.4429201852295501
  0.0911850165620232  0.5857904706619191  0.4263655175020565
  0.1156058121119166  0.8952808545924569  0.4288540184746437
  0.4908058138650471  0.2715959254063954  0.4300949093777954
  0.3613423861784525  0.5223180792150415  0.4286770737329766
  0.4368031371147089  0.8848794907928162  0.4291758617615746
  0.7888618291843279  0.2149378732836663  0.4259489648810395
  0.7173498997455906  0.5097169498459789  0.4328503461810820
  0.7771098249774733  0.8828285637053652  0.4293492245415285
  0.2505169080018053  0.1385497955785167  0.4401418876966383
  0.2223991613015048  0.7865508811136566  0.4619593612478051
  0.5632113670325295  0.1149828895747358  0.4444721408118276
  0.5362958328617280  0.7567840631859974  0.4480626740528210
  0.9212843667277162  0.1233446441753005  0.4425955897949769
  0.8766447239210166  0.4395317885283927  0.4459894118904125
  0.8729668593275781  0.7527840627981728  0.4455111535229270
  0.1132092990923233  0.2144796469353625  0.3039064975864885
  0.1126397027065902  0.5538373733701872  0.3333227981460490
  0.1093155918016890  0.8915553612516293  0.3306542193072877
  0.4513631662545058  0.2219512295697678  0.3117805775565994
  0.4418706742889683  0.5432967747994244  0.3324605440892306
  0.4465407929382119  0.8863050201991839  0.3258232247779899
  0.7828176388633026  0.2163862702177987  0.3226570559605805
  0.7753729742226037  0.5510359688443209  0.3103367184123149
  0.7766195160390038  0.8853384717506201  0.3287578676669365
 
  0.00000000E+00  0.00000000E+00  0.00000000E+00
  0.00000000E+00  0.00000000E+00  0.00000000E+00
  0.00000000E+00  0.00000000E+00  0.00000000E+00
  0.00000000E+00  0.00000000E+00  0.00000000E+00
  0.00000000E+00  0.00000000E+00  0.00000000E+00
  0.00000000E+00  0.00000000E+00  0.00000000E+00
  0.00000000E+00  0.00000000E+00  0.00000000E+00
  0.00000000E+00  0.00000000E+00  0.00000000E+00
  0.00000000E+00  0.00000000E+00  0.00000000E+00
  0.00000000E+00  0.00000000E+00  0.00000000E+00
  0.00000000E+00  0.00000000E+00  0.00000000E+00
  0.00000000E+00  0.00000000E+00  0.00000000E+00
  0.00000000E+00  0.00000000E+00  0.00000000E+00
  0.00000000E+00  0.00000000E+00  0.00000000E+00
  0.00000000E+00  0.00000000E+00  0.00000000E+00
  0.00000000E+00  0.00000000E+00  0.00000000E+00
  0.00000000E+00  0.00000000E+00  0.00000000E+00
  0.00000000E+00  0.00000000E+00  0.00000000E+00
  0.00000000E+00  0.00000000E+00  0.00000000E+00
  0.00000000E+00  0.00000000E+00  0.00000000E+00
  0.00000000E+00  0.00000000E+00  0.00000000E+00
  0.00000000E+00  0.00000000E+00  0.00000000E+00
  0.00000000E+00  0.00000000E+00  0.00000000E+00
  0.00000000E+00  0.00000000E+00  0.00000000E+00
  0.00000000E+00  0.00000000E+00  0.00000000E+00
  0.00000000E+00  0.00000000E+00  0.00000000E+00
  0.00000000E+00  0.00000000E+00  0.00000000E+00
  0.00000000E+00  0.00000000E+00  0.00000000E+00
  0.00000000E+00  0.00000000E+00  0.00000000E+00
  0.00000000E+00  0.00000000E+00  0.00000000E+00
  0.00000000E+00  0.00000000E+00  0.00000000E+00
  0.00000000E+00  0.00000000E+00  0.00000000E+00
  0.00000000E+00  0.00000000E+00  0.00000000E+00
  0.00000000E+00  0.00000000E+00  0.00000000E+00
  0.00000000E+00  0.00000000E+00  0.00000000E+00
  0.00000000E+00  0.00000000E+00  0.00000000E+00
  0.00000000E+00  0.00000000E+00  0.00000000E+00
  0.00000000E+00  0.00000000E+00  0.00000000E+00
  0.00000000E+00  0.00000000E+00  0.00000000E+00
  0.00000000E+00  0.00000000E+00  0.00000000E+00
  0.00000000E+00  0.00000000E+00  0.00000000E+00
  0.00000000E+00  0.00000000E+00  0.00000000E+00
  0.00000000E+00  0.00000000E+00  0.00000000E+00
  0.00000000E+00  0.00000000E+00  0.00000000E+00
  0.00000000E+00  0.00000000E+00  0.00000000E+00
  0.00000000E+00  0.00000000E+00  0.00000000E+00
  0.00000000E+00  0.00000000E+00  0.00000000E+00
  0.00000000E+00  0.00000000E+00  0.00000000E+00
  0.00000000E+00  0.00000000E+00  0.00000000E+00
  0.00000000E+00  0.00000000E+00  0.00000000E+00
  0.00000000E+00  0.00000000E+00  0.00000000E+00
  0.00000000E+00  0.00000000E+00  0.00000000E+00
  0.00000000E+00  0.00000000E+00  0.00000000E+00
  0.00000000E+00  0.00000000E+00  0.00000000E+00
  0.00000000E+00  0.00000000E+00  0.00000000E+00
  0.00000000E+00  0.00000000E+00  0.00000000E+00
  0.00000000E+00  0.00000000E+00  0.00000000E+00
  0.00000000E+00  0.00000000E+00  0.00000000E+00
  0.00000000E+00  0.00000000E+00  0.00000000E+00
  0.00000000E+00  0.00000000E+00  0.00000000E+00
  0.00000000E+00  0.00000000E+00  0.00000000E+00
