cif2pos.py                              
   1.00000000000000     
    11.6563999999999997    0.0000000000000000    0.0000000000000000
    -5.8282323800000002   10.0948352900000007    0.0000000000000000
     0.0000000000000000    0.0000000000000000   25.0000000000000000
   Cd   Cl   Zn   S 
     9    18    18    17
Direct
  0.3333939253486298  0.0001215616144897  0.6279726028862845
  0.3335021993126539  0.3334179880104829  0.6286018081522904
  0.3333936941086839  0.6666063058913163  0.6279728420824704
  0.6668221049436331  0.0000773841663302  0.6284713792112900
  0.6665826538075287  0.3334173461924714  0.6286012456313208
  0.6665820119895168  0.6664978006873463  0.6286018081522904
 -0.0000777639964564  0.0000777639964564  0.6284717232834922
 -0.0000773841663302  0.3331778950563669  0.6284713792112900
 -0.0001215616144897  0.6666060746513702  0.6279726028862845
  0.2227333336463419  0.1109987866827568  0.6862650525597614
  0.2227328498427697  0.4450682877015749  0.6862651060253717
  0.2222217230681881  0.7777782769318120  0.6860589130975416
  0.5549323816721234  0.1109985813429206  0.6862648580033248
  0.5555558633069188  0.4444441366930813  0.6867148377536066
  0.5549317122984251  0.7772671501572304  0.6862651060253717
  0.8888888522230440  0.1111111477769562  0.6865932673107151
  0.8890014186570794  0.4450676183278764  0.6862648580033248
  0.8890012133172432  0.7772666663536582  0.6862650525597614
  0.1112315659948238  0.2222822398013479  0.5712067202326664
  0.1108824504829380  0.5550982580050445  0.5708556326666521
  0.1108820232704539  0.8891179767295461  0.5708556594306988
  0.4453854928067708  0.2241043602731357  0.5704230907230575
  0.4453853067617168  0.5546146932382829  0.5704232752319900
  0.4449017419949553  0.8891175495170620  0.5708556326666521
  0.7777183567306187  0.2222816432693812  0.5712065088863906
  0.7758956397268645  0.5546145071932292  0.5704230907230575
  0.7777177601986521  0.8887684340051760  0.5712067202326664
  0.2262376198667196  0.1137499061193839  0.3441278200098383
  0.2262364502209245  0.4458209339141170  0.3441278140951698
  0.2222218820920212  0.7777781179079788  0.3443827882642429
  0.5541795170594511  0.1137506620512156  0.3441277682192805
  0.5555555375969193  0.4444444624030807  0.3592404859124657
  0.5541790660858831  0.7737635497790755  0.3441278140951698
  0.8888889365011278  0.1111110634988723  0.3436635422646138
  0.8862493379487846  0.4458204829405488  0.3441277682192805
  0.8862500938806160  0.7737623801332802  0.3441278200098383
  0.1115496816209537  0.2224414855404011  0.4270223359024499
  0.1107834544677458  0.5549008534026537  0.4271633794008828
  0.1107832760760514  0.8892167239239485  0.4271635866440275
  0.4545690479186947  0.2424702086672887  0.4237790237409935
  0.4545666321382311  0.5454333678617689  0.4237781361464678
  0.4450991465973462  0.8892165455322540  0.4271633794008828
  0.7775591077599684  0.2224408922400318  0.4270224731915116
  0.7575297913327115  0.5454309520813055  0.4237790237409935
  0.7775585144595990  0.8884503183790462  0.4270223359024499
  0.2295134930288555  0.1169609493500782  0.4472538925693256
  0.2295123225373580  0.4458857216106464  0.4472541599701394
  0.2222220577806336  0.7777779422193664  0.4493655672508695
  0.5541150605665928  0.1169606050330583  0.4472538488785569
  0.5541142783893538  0.7704876774626421  0.4472541599701394
  0.8888892651693041  0.1111107348306959  0.4487701321489430
  0.8830393949669418  0.4458849394334075  0.4472538488785569
  0.8830390506499219  0.7704865069711446  0.4472538925693256
  0.1115531464569122  0.2224433081430114  0.3229661783821875
  0.1107254168475735  0.5547856408388478  0.3244302582611112
  0.1107257496564779  0.8892742503435220  0.3244299767084193
  0.4482053303145279  0.2297443240956552  0.3207309296191119
  0.4482049897220434  0.5517950102779565  0.3207316831505882
  0.4452143591611522  0.8892745831524267  0.3244302582611112
  0.7775570576339730  0.2224429423660272  0.3229660365901863
  0.7702556759043447  0.5517946696854723  0.3207309296191119
  0.7775566918569886  0.8884468535430875  0.3229661783821875
 
  0.00000000E+00  0.00000000E+00  0.00000000E+00
  0.00000000E+00  0.00000000E+00  0.00000000E+00
  0.00000000E+00  0.00000000E+00  0.00000000E+00
  0.00000000E+00  0.00000000E+00  0.00000000E+00
  0.00000000E+00  0.00000000E+00  0.00000000E+00
  0.00000000E+00  0.00000000E+00  0.00000000E+00
  0.00000000E+00  0.00000000E+00  0.00000000E+00
  0.00000000E+00  0.00000000E+00  0.00000000E+00
  0.00000000E+00  0.00000000E+00  0.00000000E+00
  0.00000000E+00  0.00000000E+00  0.00000000E+00
  0.00000000E+00  0.00000000E+00  0.00000000E+00
  0.00000000E+00  0.00000000E+00  0.00000000E+00
  0.00000000E+00  0.00000000E+00  0.00000000E+00
  0.00000000E+00  0.00000000E+00  0.00000000E+00
  0.00000000E+00  0.00000000E+00  0.00000000E+00
  0.00000000E+00  0.00000000E+00  0.00000000E+00
  0.00000000E+00  0.00000000E+00  0.00000000E+00
  0.00000000E+00  0.00000000E+00  0.00000000E+00
  0.00000000E+00  0.00000000E+00  0.00000000E+00
  0.00000000E+00  0.00000000E+00  0.00000000E+00
  0.00000000E+00  0.00000000E+00  0.00000000E+00
  0.00000000E+00  0.00000000E+00  0.00000000E+00
  0.00000000E+00  0.00000000E+00  0.00000000E+00
  0.00000000E+00  0.00000000E+00  0.00000000E+00
  0.00000000E+00  0.00000000E+00  0.00000000E+00
  0.00000000E+00  0.00000000E+00  0.00000000E+00
  0.00000000E+00  0.00000000E+00  0.00000000E+00
  0.00000000E+00  0.00000000E+00  0.00000000E+00
  0.00000000E+00  0.00000000E+00  0.00000000E+00
  0.00000000E+00  0.00000000E+00  0.00000000E+00
  0.00000000E+00  0.00000000E+00  0.00000000E+00
  0.00000000E+00  0.00000000E+00  0.00000000E+00
  0.00000000E+00  0.00000000E+00  0.00000000E+00
  0.00000000E+00  0.00000000E+00  0.00000000E+00
  0.00000000E+00  0.00000000E+00  0.00000000E+00
  0.00000000E+00  0.00000000E+00  0.00000000E+00
  0.00000000E+00  0.00000000E+00  0.00000000E+00
  0.00000000E+00  0.00000000E+00  0.00000000E+00
  0.00000000E+00  0.00000000E+00  0.00000000E+00
  0.00000000E+00  0.00000000E+00  0.00000000E+00
  0.00000000E+00  0.00000000E+00  0.00000000E+00
  0.00000000E+00  0.00000000E+00  0.00000000E+00
  0.00000000E+00  0.00000000E+00  0.00000000E+00
  0.00000000E+00  0.00000000E+00  0.00000000E+00
  0.00000000E+00  0.00000000E+00  0.00000000E+00
  0.00000000E+00  0.00000000E+00  0.00000000E+00
  0.00000000E+00  0.00000000E+00  0.00000000E+00
  0.00000000E+00  0.00000000E+00  0.00000000E+00
  0.00000000E+00  0.00000000E+00  0.00000000E+00
  0.00000000E+00  0.00000000E+00  0.00000000E+00
  0.00000000E+00  0.00000000E+00  0.00000000E+00
  0.00000000E+00  0.00000000E+00  0.00000000E+00
  0.00000000E+00  0.00000000E+00  0.00000000E+00
  0.00000000E+00  0.00000000E+00  0.00000000E+00
  0.00000000E+00  0.00000000E+00  0.00000000E+00
  0.00000000E+00  0.00000000E+00  0.00000000E+00
  0.00000000E+00  0.00000000E+00  0.00000000E+00
  0.00000000E+00  0.00000000E+00  0.00000000E+00
  0.00000000E+00  0.00000000E+00  0.00000000E+00
  0.00000000E+00  0.00000000E+00  0.00000000E+00
  0.00000000E+00  0.00000000E+00  0.00000000E+00
  0.00000000E+00  0.00000000E+00  0.00000000E+00
