cif2pos.py                              
   1.00000000000000     
    11.6563999999999997    0.0000000000000000    0.0000000000000000
    -5.8282323800000002   10.0948352900000007    0.0000000000000000
     0.0000000000000000    0.0000000000000000   25.0000000000000000
   Cd   Cl   Zn   S 
     9    18    18    17
Direct
  0.3413642329008709  0.9900651238830146  0.6269817616861251
  0.3324782797846405  0.3410757503501352  0.6383657804323297
  0.3444734638508057  0.6609758239713092  0.6167604810002182
  0.6762792415837194  0.9989850341169509  0.6295288538826798
  0.6735439970901290  0.3266824529350214  0.6369389531457116
  0.6791106900484042  0.6599156720403248  0.6367056062054955
  0.0104206793624676  0.9954484554584911  0.6421922669156190
  0.0016352717659218  0.3370370739432138  0.6227979295275305
  0.0141859700188783  0.6783599201444260  0.6238715406554626
  0.2438865368822417  0.1106087863719305  0.6900001340290564
  0.2172127234987540  0.4466549743352319  0.6903164835833624
  0.2321466701240925  0.7698586797520137  0.6809141025332287
  0.5529360498691802  0.1059063596379676  0.6872147463153931
  0.5526855975270514  0.4374656338192834  0.6915594485146617
  0.5391019185295334  0.7703554080046777  0.6902513690915114
  0.8940919855470005  0.1229170988070265  0.6906533146437519
  0.9069487139540643  0.4477483789544149  0.6858525871000656
  0.8933484929224605  0.7680773448826191  0.6962440560685066
  0.1101763983190681  0.2147820574458117  0.5806707882263399
  0.1169813926460126  0.5672410844728908  0.5637205452853637
  0.1008817057874240  0.8943305175316902  0.5717016840402686
  0.4558131332249222  0.2273384996888611  0.5760272160623585
  0.4589392373065024  0.5521225402055613  0.5708101459954421
  0.4569644638896847  0.8864915507087476  0.5674686705914409
  0.7761947366840172  0.2267900448518251  0.5683343322323461
  0.7847496354661723  0.5570735819601833  0.5772709748081187
  0.7815952456468024  0.8851548613371120  0.5797265779864761
  0.2299858399372419  0.1457984565998549  0.3476052456607978
  0.1994683742965766  0.4262111657225404  0.3435507737152876
  0.2085512195643200  0.7805250670826052  0.3287778536163071
  0.5476515898721508  0.1176259170820138  0.3395574704042217
  0.5678048243033336  0.4780808425699843  0.3223042424696483
  0.5535289244803486  0.7725954851823680  0.3299531995023115
  0.9086546399966907  0.1528480832215747  0.3365925182159395
  0.8666609937148602  0.4391880056105144  0.3271807723676694
  0.8862442156282836  0.7767466796580875  0.3336046608542665
  0.1192179437185228  0.2357359876890752  0.4483162606841350
  0.0852915763046385  0.5656131711085531  0.4251691395569712
  0.1027321812803517  0.8747658965038444  0.4311030032185821
  0.4593113535494697  0.2500102270132990  0.4340676281644839
  0.4548405623942491  0.5089403618683157  0.4426072123364733
  0.4430898580729210  0.8646889148198492  0.4204954540060364
  0.7804750272473876  0.2259746964466993  0.4373554796161846
  0.6912463941564815  0.5283430532134109  0.4521049843134726
  0.7660229268558337  0.8663723787252604  0.4212111792309479
  0.2168278486093981  0.1178055759901888  0.4559794481413623
  0.2297144179479697  0.4592772485043545  0.4409983654656268
  0.2231626395042868  0.7714843057937479  0.4549808227714207
  0.5601239776807624  0.1007615562910447  0.4515243555061305
  0.5412385398060744  0.7453408108110058  0.4440047184168592
  0.8859572957818940  0.1099539984097513  0.4370900505962639
  0.8581161932661777  0.4412251508067154  0.4306192569666285
  0.8672221948469170  0.7565346669612697  0.4407989403776338
  0.1199554219537345  0.2271905305944793  0.3088502943186210
  0.0937004039965717  0.5551592272466509  0.3301481163013538
  0.1113076705392303  0.9098293053613061  0.3324666029855893
  0.4547062053557626  0.2450182240488608  0.3379670321207364
  0.4259836602602954  0.5599788925117178  0.2992102657352184
  0.4435365938313785  0.8884684595947557  0.3250706958896493
  0.7738019116995023  0.2316855488782485  0.3060121125255839
  0.7819869139936589  0.5717988733245667  0.2992394976341006
  0.7804333976998825  0.8937250383551520  0.3251861969078615
 
  0.56257056E-04  0.71850602E-04 -0.97420361E-05
  0.22888055E-02  0.50724446E-04  0.24646684E-03
 -0.91865578E-04 -0.10055926E-02 -0.16483002E-02
 -0.33697550E-03 -0.18034924E-02 -0.97848854E-03
  0.39603369E-03 -0.10722505E-03 -0.81463699E-04
  0.21156568E-02  0.26402569E-03  0.62771980E-03
 -0.11733884E-03  0.86744211E-03 -0.10835568E-03
 -0.56942922E-03  0.71854944E-03 -0.48761744E-03
 -0.75574965E-03 -0.12356308E-02 -0.10999475E-02
  0.29295119E-02 -0.11352243E-02 -0.36202432E-02
  0.94535337E-03  0.42107483E-02  0.30436380E-02
 -0.13370140E-02 -0.93148501E-03  0.54141435E-02
  0.92468180E-03 -0.22296683E-02  0.24186948E-02
 -0.20014660E-02  0.11127998E-02  0.50178688E-03
 -0.38585482E-02  0.12120855E-02  0.15423399E-02
 -0.12460472E-02  0.31273410E-02  0.32805634E-02
  0.56879513E-03 -0.22938919E-05  0.20402587E-02
 -0.15235454E-02  0.14697706E-02 -0.29813079E-03
  0.16892385E-02  0.21814495E-03 -0.13685177E-02
 -0.41272782E-02  0.19730451E-02 -0.31335532E-02
  0.58153557E-03  0.19896847E-02  0.10272107E-02
  0.54365416E-03 -0.42536289E-02  0.22296132E-02
  0.46014785E-03 -0.61222475E-03 -0.20489413E-02
  0.97210284E-04  0.22141460E-02 -0.19602627E-02
 -0.95862488E-03  0.33160654E-02  0.82934951E-03
  0.45844735E-03 -0.24002242E-02 -0.12333494E-02
 -0.30664534E-02 -0.10788025E-02  0.16240940E-02
  0.28028863E-02  0.24193676E-02 -0.11041548E-02
 -0.31349030E-02 -0.88337047E-03  0.15368505E-02
  0.19997045E-02 -0.41635097E-02 -0.18264750E-02
 -0.15763410E-02 -0.18295322E-02 -0.17692505E-02
 -0.18854094E-02 -0.58923141E-03  0.27420135E-02
  0.23982736E-02  0.13295576E-02  0.24126529E-02
 -0.38550609E-02 -0.18748791E-02 -0.26472413E-02
  0.10273015E-02 -0.10206684E-02  0.11936721E-02
  0.10668030E-02 -0.66436444E-03  0.59019936E-03
 -0.30757976E-02 -0.47861352E-03 -0.12891498E-02
 -0.15335062E-02 -0.43362379E-02 -0.47090290E-02
  0.21537114E-04  0.18272657E-02  0.25074122E-02
  0.37411105E-02  0.89461373E-03  0.24389029E-02
  0.13953862E-02 -0.17356864E-02 -0.12412612E-02
  0.36515647E-03  0.34721036E-02 -0.90531323E-03
 -0.12147374E-02  0.15213589E-02  0.17050802E-02
  0.15693098E-02  0.50767462E-02  0.19210552E-02
 -0.27248779E-02  0.36394502E-03 -0.18377760E-03
 -0.33300480E-02 -0.52453277E-02  0.26873273E-02
  0.37045310E-02 -0.63775465E-02 -0.76913549E-03
  0.18335709E-02  0.21120210E-02 -0.44700445E-02
 -0.44788960E-02  0.17650963E-02 -0.66267541E-02
 -0.22467216E-02  0.40269299E-02 -0.32277747E-02
  0.38498524E-02  0.15275867E-02  0.50639528E-02
  0.26676234E-03  0.44623431E-02  0.50565096E-02
 -0.18034142E-02  0.11917644E-02 -0.30418731E-02
  0.55223150E-03 -0.13089919E-02 -0.51254151E-03
  0.23316045E-02  0.35998484E-03 -0.28267891E-03
  0.30253579E-02  0.18096761E-02 -0.24614493E-02
 -0.32751230E-02 -0.77999520E-04  0.27357140E-02
  0.28571116E-02 -0.48011252E-03  0.65664293E-02
 -0.41864025E-02 -0.15328030E-02 -0.27452181E-02
  0.15234128E-02 -0.37827936E-02 -0.31047450E-02
  0.11713863E-02  0.17492200E-02 -0.30557078E-02
  0.29306204E-02 -0.25693485E-03  0.64232564E-02
 
           1
   1.00000000000000     
  0.10000000E+01  0.00000000E+00  0.00000000E+00  0.00000000E+00
  0.34137262E+00  0.99007224E+00  0.62698137E+00
  0.33267715E+00  0.34108078E+00  0.63837564E+00
  0.34441578E+00  0.66087621E+00  0.61669455E+00
  0.67616100E+00  0.99880638E+00  0.62948971E+00
  0.67357266E+00  0.32667183E+00  0.63693569E+00
  0.67930527E+00  0.65994183E+00  0.63673071E+00
  0.10453578E-01  0.99553438E+00  0.64218793E+00
  0.16220107E-02  0.33710825E+00  0.62277842E+00
  0.14059933E-01  0.67823752E+00  0.62382754E+00
  0.24408163E+00  0.11049633E+00  0.68985532E+00
  0.21750239E+00  0.44707209E+00  0.69043823E+00
  0.23198583E+00  0.76976641E+00  0.68113067E+00
  0.55290494E+00  0.10568549E+00  0.68731149E+00
  0.55256901E+00  0.43757587E+00  0.69157952E+00
  0.53883093E+00  0.77047548E+00  0.69031306E+00
  0.89413999E+00  0.12322689E+00  0.69078454E+00
  0.90699740E+00  0.44774815E+00  0.68593420E+00
  0.89329059E+00  0.76822294E+00  0.69623213E+00
  0.11033212E+00  0.21480367E+00  0.58061605E+00
  0.11672504E+00  0.56743654E+00  0.56359520E+00
  0.10103015E+00  0.89452762E+00  0.57174277E+00
  0.45564909E+00  0.22691713E+00  0.57611640E+00
  0.45894839E+00  0.55206189E+00  0.57072819E+00
  0.45708247E+00  0.88671089E+00  0.56739026E+00
  0.77627674E+00  0.22711854E+00  0.56836751E+00
  0.78467008E+00  0.55683581E+00  0.57722164E+00
  0.78127874E+00  0.88504799E+00  0.57979154E+00
  0.23034613E+00  0.14603812E+00  0.34756108E+00
  0.19915568E+00  0.42612366E+00  0.34361225E+00
  0.20851655E+00  0.78011263E+00  0.32870479E+00
  0.54742574E+00  0.11744468E+00  0.33948670E+00
  0.56761389E+00  0.47802247E+00  0.32241392E+00
  0.55380053E+00  0.77272719E+00  0.33004971E+00
  0.90823105E+00  0.15266236E+00  0.33648663E+00
  0.86669857E+00  0.43908690E+00  0.32722852E+00
  0.88630283E+00  0.77668087E+00  0.33362827E+00
  0.11893037E+00  0.23568858E+00  0.44826469E+00
  0.84945241E-01  0.56518362E+00  0.42498078E+00
  0.10282453E+00  0.87494691E+00  0.43120330E+00
  0.45967661E+00  0.25009885E+00  0.43416518E+00
  0.45487430E+00  0.50876842E+00  0.44255756E+00
  0.44329316E+00  0.86503286E+00  0.42045924E+00
  0.78044617E+00  0.22612540E+00  0.43742368E+00
  0.69163248E+00  0.52884596E+00  0.45218183E+00
  0.76580719E+00  0.86640843E+00  0.42120383E+00
  0.21628236E+00  0.11728597E+00  0.45608694E+00
  0.22971635E+00  0.45864549E+00  0.44096760E+00
  0.22342455E+00  0.77169352E+00  0.45480202E+00
  0.55982716E+00  0.10093641E+00  0.45125929E+00
  0.54124525E+00  0.74573972E+00  0.44387561E+00
  0.88636324E+00  0.11010532E+00  0.43729261E+00
  0.85836010E+00  0.44166719E+00  0.43082152E+00
  0.86712651E+00  0.75665272E+00  0.44067727E+00
  0.11993796E+00  0.22706086E+00  0.30882979E+00
  0.93918262E-01  0.55519489E+00  0.33013681E+00
  0.11165685E+00  0.91000857E+00  0.33236815E+00
  0.45442137E+00  0.24501050E+00  0.33807646E+00
  0.42620499E+00  0.55993133E+00  0.29947292E+00
  0.44310152E+00  0.88831662E+00  0.32496089E+00
  0.77374524E+00  0.23131082E+00  0.30588792E+00
  0.78217405E+00  0.57197215E+00  0.29911727E+00
  0.78067209E+00  0.89369959E+00  0.32544313E+00
  0.83755611E-05  0.58695103E-05  0.15300253E-06
  0.19862976E-03  0.63609218E-05  0.10143450E-04
 -0.56867844E-04 -0.10014256E-03 -0.66615102E-04
 -0.11725549E-03 -0.17845350E-03 -0.39568480E-04
  0.28802375E-04 -0.11427358E-04 -0.29064108E-05
  0.19603617E-03  0.24577689E-04  0.24772668E-04
  0.34013579E-04  0.85252961E-04 -0.45962715E-05
 -0.13358516E-04  0.70698046E-04 -0.19713273E-04
 -0.12589977E-03 -0.12100103E-03 -0.44526567E-04
  0.19932478E-03 -0.11036161E-03 -0.14506718E-03
  0.28731601E-03  0.41558243E-03  0.12397380E-03
 -0.15899745E-03 -0.93198338E-04  0.21649854E-03
 -0.34883366E-04 -0.21889410E-03  0.95591324E-04
 -0.12020145E-03  0.10728064E-03  0.19271042E-04
 -0.27616307E-03  0.12002399E-03  0.63943929E-04
  0.49660637E-04  0.31375814E-03  0.13220465E-03
  0.51755563E-04 -0.11066935E-05  0.81938384E-04
 -0.59734816E-04  0.14352811E-03 -0.11135477E-04
  0.15315008E-03  0.20085446E-04 -0.52840093E-04
 -0.25537509E-03  0.20151278E-03 -0.12668159E-03
  0.14416242E-03  0.19510162E-03  0.40852999E-04
 -0.16183235E-03 -0.42088010E-03  0.88862189E-04
  0.96077841E-05 -0.56667207E-04 -0.82043307E-04
  0.11696899E-03  0.21605861E-03 -0.78745845E-04
  0.80061408E-04  0.32955050E-03  0.31695616E-04
 -0.76913338E-04 -0.23451085E-03 -0.47649203E-04
 -0.31892061E-03 -0.10544274E-03  0.65231479E-04
  0.36099328E-03  0.24624461E-03 -0.46013481E-04
 -0.32222577E-03 -0.98310515E-04  0.61482596E-04
 -0.37547838E-04 -0.41418389E-03 -0.73305726E-04
 -0.23359804E-03 -0.18010093E-03 -0.71390936E-04
 -0.18737517E-03 -0.59805654E-04  0.11126260E-03
  0.27130276E-03  0.13621813E-03  0.96601015E-04
 -0.41842618E-03 -0.17941460E-03 -0.10698731E-03
  0.38282572E-04 -0.10779645E-03  0.46195385E-04
  0.60070120E-04 -0.64133327E-04  0.22856988E-04
 -0.28071046E-03 -0.46616672E-04 -0.51597971E-04
 -0.34705689E-03 -0.42913434E-03 -0.18861053E-03
  0.90494963E-04  0.17905383E-03  0.10038270E-03
  0.36616013E-03  0.92749990E-04  0.96627106E-04
  0.32514885E-04 -0.17613969E-03 -0.49462792E-04
  0.20582723E-03  0.34139807E-03 -0.37289749E-04
 -0.26433554E-04  0.15333153E-03  0.67751932E-04
  0.38184622E-03  0.50270586E-03  0.78159251E-04
 -0.21263426E-03  0.30229137E-04 -0.70037610E-05
 -0.55870072E-03 -0.51562430E-03  0.11028397E-03
  0.34021045E-05 -0.62197230E-03 -0.29939281E-04
  0.26133880E-03  0.19926190E-03 -0.17915542E-03
 -0.28536806E-03  0.17320731E-03 -0.26136813E-03
 -0.17249752E-05  0.39763506E-03 -0.12876817E-03
  0.39536676E-03  0.14844373E-03  0.20401465E-03
  0.24969100E-03  0.43515801E-03  0.20026871E-03
 -0.10097601E-03  0.12889614E-03 -0.12432101E-03
 -0.61069996E-05 -0.12925453E-03 -0.15151090E-04
  0.20922895E-03  0.33297306E-04 -0.93204581E-05
  0.34027631E-03  0.17955457E-03 -0.99278484E-04
 -0.28406693E-03 -0.15422035E-04  0.10882952E-03
  0.21823887E-03 -0.41123742E-04  0.25895528E-03
 -0.42672690E-03 -0.15716510E-03 -0.10915233E-03
 -0.42898307E-04 -0.35254666E-03 -0.12260199E-03
  0.19010985E-03  0.17973663E-03 -0.12066771E-03
  0.24177147E-03 -0.34810722E-04  0.25707934E-03
  0.00000000E+00  0.00000000E+00  0.00000000E+00
  0.00000000E+00  0.00000000E+00  0.00000000E+00
  0.00000000E+00  0.00000000E+00  0.00000000E+00
  0.00000000E+00  0.00000000E+00  0.00000000E+00
  0.00000000E+00  0.00000000E+00  0.00000000E+00
  0.00000000E+00  0.00000000E+00  0.00000000E+00
  0.00000000E+00  0.00000000E+00  0.00000000E+00
  0.00000000E+00  0.00000000E+00  0.00000000E+00
  0.00000000E+00  0.00000000E+00  0.00000000E+00
  0.00000000E+00  0.00000000E+00  0.00000000E+00
  0.00000000E+00  0.00000000E+00  0.00000000E+00
  0.00000000E+00  0.00000000E+00  0.00000000E+00
  0.00000000E+00  0.00000000E+00  0.00000000E+00
  0.00000000E+00  0.00000000E+00  0.00000000E+00
  0.00000000E+00  0.00000000E+00  0.00000000E+00
  0.00000000E+00  0.00000000E+00  0.00000000E+00
  0.00000000E+00  0.00000000E+00  0.00000000E+00
  0.00000000E+00  0.00000000E+00  0.00000000E+00
  0.00000000E+00  0.00000000E+00  0.00000000E+00
  0.00000000E+00  0.00000000E+00  0.00000000E+00
  0.00000000E+00  0.00000000E+00  0.00000000E+00
  0.00000000E+00  0.00000000E+00  0.00000000E+00
  0.00000000E+00  0.00000000E+00  0.00000000E+00
  0.00000000E+00  0.00000000E+00  0.00000000E+00
  0.00000000E+00  0.00000000E+00  0.00000000E+00
  0.00000000E+00  0.00000000E+00  0.00000000E+00
  0.00000000E+00  0.00000000E+00  0.00000000E+00
  0.00000000E+00  0.00000000E+00  0.00000000E+00
  0.00000000E+00  0.00000000E+00  0.00000000E+00
  0.00000000E+00  0.00000000E+00  0.00000000E+00
  0.00000000E+00  0.00000000E+00  0.00000000E+00
  0.00000000E+00  0.00000000E+00  0.00000000E+00
  0.00000000E+00  0.00000000E+00  0.00000000E+00
  0.00000000E+00  0.00000000E+00  0.00000000E+00
  0.00000000E+00  0.00000000E+00  0.00000000E+00
  0.00000000E+00  0.00000000E+00  0.00000000E+00
  0.00000000E+00  0.00000000E+00  0.00000000E+00
  0.00000000E+00  0.00000000E+00  0.00000000E+00
  0.00000000E+00  0.00000000E+00  0.00000000E+00
  0.00000000E+00  0.00000000E+00  0.00000000E+00
  0.00000000E+00  0.00000000E+00  0.00000000E+00
  0.00000000E+00  0.00000000E+00  0.00000000E+00
  0.00000000E+00  0.00000000E+00  0.00000000E+00
  0.00000000E+00  0.00000000E+00  0.00000000E+00
  0.00000000E+00  0.00000000E+00  0.00000000E+00
  0.00000000E+00  0.00000000E+00  0.00000000E+00
  0.00000000E+00  0.00000000E+00  0.00000000E+00
  0.00000000E+00  0.00000000E+00  0.00000000E+00
  0.00000000E+00  0.00000000E+00  0.00000000E+00
  0.00000000E+00  0.00000000E+00  0.00000000E+00
  0.00000000E+00  0.00000000E+00  0.00000000E+00
  0.00000000E+00  0.00000000E+00  0.00000000E+00
  0.00000000E+00  0.00000000E+00  0.00000000E+00
  0.00000000E+00  0.00000000E+00  0.00000000E+00
  0.00000000E+00  0.00000000E+00  0.00000000E+00
  0.00000000E+00  0.00000000E+00  0.00000000E+00
  0.00000000E+00  0.00000000E+00  0.00000000E+00
  0.00000000E+00  0.00000000E+00  0.00000000E+00
  0.00000000E+00  0.00000000E+00  0.00000000E+00
  0.00000000E+00  0.00000000E+00  0.00000000E+00
  0.00000000E+00  0.00000000E+00  0.00000000E+00
  0.00000000E+00  0.00000000E+00  0.00000000E+00
