cif2pos.py                              
   1.00000000000000     
    11.6563999999999997    0.0000000000000000    0.0000000000000000
    -5.8282323800000002   10.0948352900000007    0.0000000000000000
     0.0000000000000000    0.0000000000000000   25.0000000000000000
   Cd   Cl   Zn   S 
     9    18    18    17
Direct
  0.3332490387141931  0.9998317047036593  0.6286021750021789
  0.3334891980677384  0.3334114331429276  0.6284715764348974
  0.3332487644422031  0.6667512355577969  0.6286023659488009
  0.6665452401300271  0.9999389357508477  0.6279718704114288
  0.6665891640525743  0.3334108359474257  0.6284710447380277
  0.6665885668570724  0.6665108019322616  0.6284715764348974
  0.0000607052515988  0.9999392947484012  0.6279721994103795
  0.0000610642491523  0.3334547598699729  0.6279718704114288
  0.0001682952963407  0.6667509612858069  0.6286021750021789
  0.2215985387116888  0.1106010188827398  0.6862649787090120
  0.2215980903467667  0.4443313707069265  0.6862650182857806
  0.2222217698990363  0.7777782301009637  0.6867151161830449
  0.5556693852177830  0.1106006872145429  0.6862647866801765
  0.5555558581060751  0.4444441418939249  0.6865933378528695
  0.5556686292930735  0.7784019096532333  0.6862650182857806
  0.8888888587544699  0.1111111412455301  0.6860582230673842
  0.8893993127854571  0.4443306147822170  0.6862647866801765
  0.8893989811172602  0.7784014612883112  0.6862649787090120
  0.1115699287483096  0.2224514416234342  0.5708554155257843
  0.1120526856970088  0.5574387348993426  0.5704232536500911
  0.1120522973253273  0.8879477026746727  0.5704233634581257
  0.4443844843829794  0.2221021514293042  0.5712067151909110
  0.4443842589281175  0.5556157410718825  0.5712068770311660
  0.4425612651006574  0.8879473143029912  0.5704232536500911
  0.7775491395157346  0.2224508604842654  0.5708551922655971
  0.7778978485706958  0.5556155156170206  0.5712067151909110
  0.7775485583765658  0.8884300712516904  0.5708554155257843
  0.2208455558109748  0.1070955831185003  0.3441276326628824
  0.2208460123436353  0.4470837326751393  0.3441277464951895
  0.2222221408168181  0.7777778591831819  0.3592405469380893
  0.5529176283611363  0.1070965235239996  0.3441276364369372
  0.5555555395998582  0.4444444604001418  0.3436637110507732
  0.5529162673248607  0.7791539876563647  0.3441277464951895
  0.8888889373651452  0.1111110626348548  0.3443827754825151
  0.8929034764760004  0.4470823716388637  0.3441276364369372
  0.8929044168814997  0.7791544441890252  0.3441276326628824
  0.1117668946589632  0.2225499539337008  0.4271633770162921
  0.1212344337140436  0.5758019314095648  0.4237787640372375
  0.1212342232322214  0.8787657767677786  0.4237789273768229
  0.4442255196910168  0.2217838058534340  0.4270223115327028
  0.4442250653375339  0.5557749346624661  0.4270225154275167
  0.4241980685904352  0.8787655662859564  0.4237787640372375
  0.7774504015768855  0.2225495984231145  0.4271635121829149
  0.7782161941465660  0.5557744803089832  0.4270223115327028
  0.7774500460662992  0.8882331053410368  0.4271633770162921
  0.2207818081687805  0.1038208359813098  0.4472543212327267
  0.2207816727444438  0.4502939272794038  0.4472540461112544
  0.5497065323406929  0.1038206803175896  0.4472542390804293
  0.5555559806657442  0.4444440193342558  0.4487706062778756
  0.5497060727205962  0.7792183272555562  0.4472540461112544
  0.8888889679802858  0.1111110320197142  0.4493663952331133
  0.8961793196824104  0.4502934676593071  0.4472542390804293
  0.8961791640186902  0.7792181918312195  0.4472543212327267
  0.1118820485051231  0.2226078893052161  0.3244300653760561
  0.1148718302886849  0.5630773459991119  0.3207312144824499
  0.1148719482256126  0.8851280517743874  0.3207310464814768
  0.4442237767931445  0.2217808994452923  0.3229661239948669
  0.4442235511895376  0.5557764488104624  0.3229659214716349
  0.4369226540008881  0.8851281697113151  0.3207312144824499
  0.7773927114940946  0.2226072885059054  0.3244297854233693
  0.7782191005547077  0.5557762232068555  0.3229661239948669
  0.7773921106947839  0.8881179514948769  0.3244300653760561
 
  0.00000000E+00  0.00000000E+00  0.00000000E+00
  0.00000000E+00  0.00000000E+00  0.00000000E+00
  0.00000000E+00  0.00000000E+00  0.00000000E+00
  0.00000000E+00  0.00000000E+00  0.00000000E+00
  0.00000000E+00  0.00000000E+00  0.00000000E+00
  0.00000000E+00  0.00000000E+00  0.00000000E+00
  0.00000000E+00  0.00000000E+00  0.00000000E+00
  0.00000000E+00  0.00000000E+00  0.00000000E+00
  0.00000000E+00  0.00000000E+00  0.00000000E+00
  0.00000000E+00  0.00000000E+00  0.00000000E+00
  0.00000000E+00  0.00000000E+00  0.00000000E+00
  0.00000000E+00  0.00000000E+00  0.00000000E+00
  0.00000000E+00  0.00000000E+00  0.00000000E+00
  0.00000000E+00  0.00000000E+00  0.00000000E+00
  0.00000000E+00  0.00000000E+00  0.00000000E+00
  0.00000000E+00  0.00000000E+00  0.00000000E+00
  0.00000000E+00  0.00000000E+00  0.00000000E+00
  0.00000000E+00  0.00000000E+00  0.00000000E+00
  0.00000000E+00  0.00000000E+00  0.00000000E+00
  0.00000000E+00  0.00000000E+00  0.00000000E+00
  0.00000000E+00  0.00000000E+00  0.00000000E+00
  0.00000000E+00  0.00000000E+00  0.00000000E+00
  0.00000000E+00  0.00000000E+00  0.00000000E+00
  0.00000000E+00  0.00000000E+00  0.00000000E+00
  0.00000000E+00  0.00000000E+00  0.00000000E+00
  0.00000000E+00  0.00000000E+00  0.00000000E+00
  0.00000000E+00  0.00000000E+00  0.00000000E+00
  0.00000000E+00  0.00000000E+00  0.00000000E+00
  0.00000000E+00  0.00000000E+00  0.00000000E+00
  0.00000000E+00  0.00000000E+00  0.00000000E+00
  0.00000000E+00  0.00000000E+00  0.00000000E+00
  0.00000000E+00  0.00000000E+00  0.00000000E+00
  0.00000000E+00  0.00000000E+00  0.00000000E+00
  0.00000000E+00  0.00000000E+00  0.00000000E+00
  0.00000000E+00  0.00000000E+00  0.00000000E+00
  0.00000000E+00  0.00000000E+00  0.00000000E+00
  0.00000000E+00  0.00000000E+00  0.00000000E+00
  0.00000000E+00  0.00000000E+00  0.00000000E+00
  0.00000000E+00  0.00000000E+00  0.00000000E+00
  0.00000000E+00  0.00000000E+00  0.00000000E+00
  0.00000000E+00  0.00000000E+00  0.00000000E+00
  0.00000000E+00  0.00000000E+00  0.00000000E+00
  0.00000000E+00  0.00000000E+00  0.00000000E+00
  0.00000000E+00  0.00000000E+00  0.00000000E+00
  0.00000000E+00  0.00000000E+00  0.00000000E+00
  0.00000000E+00  0.00000000E+00  0.00000000E+00
  0.00000000E+00  0.00000000E+00  0.00000000E+00
  0.00000000E+00  0.00000000E+00  0.00000000E+00
  0.00000000E+00  0.00000000E+00  0.00000000E+00
  0.00000000E+00  0.00000000E+00  0.00000000E+00
  0.00000000E+00  0.00000000E+00  0.00000000E+00
  0.00000000E+00  0.00000000E+00  0.00000000E+00
  0.00000000E+00  0.00000000E+00  0.00000000E+00
  0.00000000E+00  0.00000000E+00  0.00000000E+00
  0.00000000E+00  0.00000000E+00  0.00000000E+00
  0.00000000E+00  0.00000000E+00  0.00000000E+00
  0.00000000E+00  0.00000000E+00  0.00000000E+00
  0.00000000E+00  0.00000000E+00  0.00000000E+00
  0.00000000E+00  0.00000000E+00  0.00000000E+00
  0.00000000E+00  0.00000000E+00  0.00000000E+00
  0.00000000E+00  0.00000000E+00  0.00000000E+00
  0.00000000E+00  0.00000000E+00  0.00000000E+00
