cif2pos.py                              
   1.00000000000000     
    11.6563999999999997    0.0000000000000000    0.0000000000000000
    -5.8282323800000002   10.0948352900000007    0.0000000000000000
     0.0000000000000000    0.0000000000000000   25.0000000000000000
   Cd   Cl   Zn   S 
     9    18    18    17
Direct
  0.3333654229618542  0.0000161942635130  0.6284866177181664
  0.3335217359509338  0.3337096976016499  0.6284042123220097
  0.3335212261150526  0.6664787738849473  0.6284046980639941
  0.6666723581851384  0.0000111813853829  0.6286155537738639
  0.6666726554253801  0.3333273445746200  0.6286152753474138
  0.6662903023983503  0.6664782640490662  0.6284042123220097
 -0.0000159796288161  0.0000159796288161  0.6284864072349510
 -0.0000111813853829  0.3333276418148616  0.6286155537738639
 -0.0000161942635130  0.6666345770381458  0.6284866177181664
  0.2223794226185843  0.1114254385154870  0.6863545859439879
  0.2219182882212637  0.4442925669546105  0.6865962646646219
  0.2223788682673978  0.7776211317326023  0.6863548198969971
  0.5555820218539645  0.1111243478077645  0.6865358772399622
  0.5557077441575443  0.4442922558424555  0.6865960109552430
  0.5557074330453895  0.7780817117787363  0.6865962646646219
  0.8888759119270140  0.1111240880729859  0.6865359271131880
  0.8888756521922354  0.4444179781460356  0.6865358772399622
  0.8885745614845131  0.7776205773814155  0.6863545859439879
  0.1107997334905502  0.2221640947609139  0.5710396116770953
  0.1107995367286524  0.5553022997371508  0.5710398047774121
  0.1111111166883301  0.8888888833116699  0.5711400349856153
  0.4446982153830348  0.2221638578397537  0.5710395585304051
  0.4444443874333308  0.5555556125666691  0.5714059453714648
  0.4446977002628491  0.8892004632713474  0.5710398047774121
  0.7777781494809227  0.2222218505190775  0.5709755989768851
  0.7778361421602462  0.5553017846169649  0.5710395585304051
  0.7778359052390861  0.8892002665094498  0.5710396116770953
  0.2224401276494844  0.1115470802929094  0.3440158285594892
  0.2408914454201138  0.4537798667913574  0.3480899023958974
  0.2224395736734945  0.7775604263265053  0.3440156697182817
  0.5553425351082756  0.1110043751044875  0.3436789270450996
  0.5462230741840566  0.4537769258159435  0.3480904754317513
  0.5462201332086425  0.7591085545798861  0.3480899023958974
  0.8889956548849316  0.1110043451150683  0.3436787400087205
  0.8889956248955123  0.4446574648917243  0.3436789270450996
  0.8884529197070905  0.7775598723505156  0.3440158285594892
  0.1137005603119733  0.2261699323967648  0.4271516269705848
  0.1137018222732215  0.5541981508314906  0.4271518045902054
  0.1111109621068896  0.8888890378931105  0.4271632172833046
  0.4458027386143422  0.2261694705786715  0.4271519249170259
  0.4444444838696263  0.5555555161303739  0.4114780539750756
  0.4458018491685092  0.8862981777267788  0.4271518045902054
  0.7777781168258160  0.2222218831741841  0.4266515219678920
  0.7738305294213285  0.5541972613856579  0.4271519249170259
  0.7738300676032352  0.8862994396880267  0.4271516269705848
  0.2224422436980141  0.1115507199533444  0.4478058645904225
  0.2297073997776028  0.4481869108299828  0.4503300560021433
  0.2224420172356202  0.7775579827643800  0.4478060479784219
  0.5548398321062386  0.1107526889307716  0.4463400211384855
  0.5518133089457250  0.4481866910542751  0.4503296827215754
  0.5518130891700169  0.7702926002223971  0.4503300560021433
  0.8892471375108523  0.1107528624891477  0.4463401845177610
  0.8892473110692283  0.4451601678937614  0.4463400211384855
  0.8884492800466554  0.7775577563019859  0.4478058645904225
  0.1169212704256555  0.2295218141555736  0.3234949522806668
  0.1169209350249493  0.5540667946671737  0.3234949984387627
  0.1111106781339929  0.8888893218660070  0.3217999733940046
  0.4459336084718431  0.2295206796313479  0.3234947766356064
  0.4459332053328263  0.8830790649750510  0.3234949984387627
  0.7777778215172501  0.2222221784827497  0.3207961746336896
  0.7704793203686519  0.5540663915281568  0.3234947766356064
  0.7704781858444265  0.8830787295743445  0.3234949522806668
 
  0.00000000E+00  0.00000000E+00  0.00000000E+00
  0.00000000E+00  0.00000000E+00  0.00000000E+00
  0.00000000E+00  0.00000000E+00  0.00000000E+00
  0.00000000E+00  0.00000000E+00  0.00000000E+00
  0.00000000E+00  0.00000000E+00  0.00000000E+00
  0.00000000E+00  0.00000000E+00  0.00000000E+00
  0.00000000E+00  0.00000000E+00  0.00000000E+00
  0.00000000E+00  0.00000000E+00  0.00000000E+00
  0.00000000E+00  0.00000000E+00  0.00000000E+00
  0.00000000E+00  0.00000000E+00  0.00000000E+00
  0.00000000E+00  0.00000000E+00  0.00000000E+00
  0.00000000E+00  0.00000000E+00  0.00000000E+00
  0.00000000E+00  0.00000000E+00  0.00000000E+00
  0.00000000E+00  0.00000000E+00  0.00000000E+00
  0.00000000E+00  0.00000000E+00  0.00000000E+00
  0.00000000E+00  0.00000000E+00  0.00000000E+00
  0.00000000E+00  0.00000000E+00  0.00000000E+00
  0.00000000E+00  0.00000000E+00  0.00000000E+00
  0.00000000E+00  0.00000000E+00  0.00000000E+00
  0.00000000E+00  0.00000000E+00  0.00000000E+00
  0.00000000E+00  0.00000000E+00  0.00000000E+00
  0.00000000E+00  0.00000000E+00  0.00000000E+00
  0.00000000E+00  0.00000000E+00  0.00000000E+00
  0.00000000E+00  0.00000000E+00  0.00000000E+00
  0.00000000E+00  0.00000000E+00  0.00000000E+00
  0.00000000E+00  0.00000000E+00  0.00000000E+00
  0.00000000E+00  0.00000000E+00  0.00000000E+00
  0.00000000E+00  0.00000000E+00  0.00000000E+00
  0.00000000E+00  0.00000000E+00  0.00000000E+00
  0.00000000E+00  0.00000000E+00  0.00000000E+00
  0.00000000E+00  0.00000000E+00  0.00000000E+00
  0.00000000E+00  0.00000000E+00  0.00000000E+00
  0.00000000E+00  0.00000000E+00  0.00000000E+00
  0.00000000E+00  0.00000000E+00  0.00000000E+00
  0.00000000E+00  0.00000000E+00  0.00000000E+00
  0.00000000E+00  0.00000000E+00  0.00000000E+00
  0.00000000E+00  0.00000000E+00  0.00000000E+00
  0.00000000E+00  0.00000000E+00  0.00000000E+00
  0.00000000E+00  0.00000000E+00  0.00000000E+00
  0.00000000E+00  0.00000000E+00  0.00000000E+00
  0.00000000E+00  0.00000000E+00  0.00000000E+00
  0.00000000E+00  0.00000000E+00  0.00000000E+00
  0.00000000E+00  0.00000000E+00  0.00000000E+00
  0.00000000E+00  0.00000000E+00  0.00000000E+00
  0.00000000E+00  0.00000000E+00  0.00000000E+00
  0.00000000E+00  0.00000000E+00  0.00000000E+00
  0.00000000E+00  0.00000000E+00  0.00000000E+00
  0.00000000E+00  0.00000000E+00  0.00000000E+00
  0.00000000E+00  0.00000000E+00  0.00000000E+00
  0.00000000E+00  0.00000000E+00  0.00000000E+00
  0.00000000E+00  0.00000000E+00  0.00000000E+00
  0.00000000E+00  0.00000000E+00  0.00000000E+00
  0.00000000E+00  0.00000000E+00  0.00000000E+00
  0.00000000E+00  0.00000000E+00  0.00000000E+00
  0.00000000E+00  0.00000000E+00  0.00000000E+00
  0.00000000E+00  0.00000000E+00  0.00000000E+00
  0.00000000E+00  0.00000000E+00  0.00000000E+00
  0.00000000E+00  0.00000000E+00  0.00000000E+00
  0.00000000E+00  0.00000000E+00  0.00000000E+00
  0.00000000E+00  0.00000000E+00  0.00000000E+00
  0.00000000E+00  0.00000000E+00  0.00000000E+00
  0.00000000E+00  0.00000000E+00  0.00000000E+00
