cif2pos.py                              
   1.00000000000000     
    11.6563999999999997    0.0000000000000000    0.0000000000000000
    -5.8282323800000002   10.0948352900000007    0.0000000000000000
     0.0000000000000000    0.0000000000000000   25.0000000000000000
   Cd   Cl   Zn   S 
     9    18    18    16
Direct
  0.3336572504863455  0.0001287268629103  0.6269888007643099
  0.3335828488440069  0.3334582619554594  0.6258837655063602
  0.3336573550897031  0.6668619719783926  0.6269888842183589
  0.6669103046822817  0.0001221379472492  0.6286573133588497
  0.6669354047067312  0.3335430172295255  0.6284889302251124
  0.6669355331622235  0.6667263907765211  0.6284890385439994
 -0.0000990950652344 -0.0002696501215176  0.6272091494379788
 -0.0000992527215990  0.3335042438963011  0.6272090827518464
 -0.0001203683526934  0.6666065997117289  0.6283610677694523
  0.2230250101070728  0.1121562045508576  0.6846529443704431
  0.2230249048336538  0.4442020533812026  0.6846529033611015
  0.2240284770397058  0.7786809249222522  0.6852041373617621
  0.5545338179213393  0.1104131707876176  0.6860284536743989
  0.5536268341701083  0.4434802495693385  0.6855266672215213
  0.5545340719762377  0.7774547012192170  0.6860284177520873
  0.8897153911393678  0.1115247191717348  0.6855634383622238
  0.8893547715542447  0.4438477178180888  0.6861824944248381
  0.8893551071996847  0.7788410344470280  0.6861824849849875
  0.1100083059796239  0.2216708749263498  0.5696746067747627
  0.1105978955250863  0.5560117710688619  0.5703469646381635
  0.1105978032080640  0.8879195611891596  0.5703468893286675
  0.4466801457535053  0.2217594735124412  0.5694662422538754
  0.4466804299164171  0.5582545630087633  0.5694662157326316
  0.4476214960824094  0.8904774837817422  0.5690130883490129
  0.7758197654788878  0.2213674219087866  0.5703007884306386
  0.7781709876388150  0.5557525955173476  0.5711887495625709
  0.7758199621685689  0.8877863172420017  0.5703007897262304
  0.2235734924818628  0.1118522644749066  0.3442774937434272
  0.2235716297089889  0.4450534441608932  0.3442785221738506
  0.2303200669230980  0.7818263996198627  0.3448738671496174
  0.5561375649905150  0.1090091926724898  0.3609808208797753
  0.5571235695149581  0.4452292437345618  0.3417264574033559
  0.5561372193076048  0.7804613609306374  0.3609806468493533
  0.8809450737446198  0.1071369376218635  0.3442769878112688
  0.8866680776487812  0.4384227494937771  0.3442954690296646
  0.8866680215348028  0.7815791945010304  0.3442956155665344
  0.1081392885117752  0.2207356081199223  0.4281978953145656
  0.1124895340686334  0.5567644260154795  0.4273098035121176
  0.1124892771133310  0.8890585403168545  0.4273095821770273
  0.4507749879547525  0.2225009551210239  0.4230199512067203
  0.4507752540570436  0.5616064805076273  0.4230198655341466
  0.4667847074529112  0.9000615188472351  0.4241065148426695
  0.7525682178987599  0.2082873850540555  0.4260225982969275
  0.7809363539062658  0.5571351840745796  0.4260214578406151
  0.7525605615713279  0.8776104256717876  0.4260243985000921
  0.2281988552396978  0.1129428041688434  0.4489142229033345
  0.2281981427092465  0.4485876381858054  0.4489141444388401
  0.2360906707176924  0.7847114534344006  0.4474108724958912
  0.5578730878660825  0.4456024046523334  0.4482151021372369
  0.8764197174595184  0.1048752631607782  0.4467524689866000
  0.8841451115491694  0.4370943795690875  0.4470412801642045
  0.8841443955180155  0.7803840282578365  0.4470408555220469
  0.1082357022748438  0.2207843896020731  0.3259972714389297
  0.1119094660498063  0.5567315980467934  0.3247091351736060
  0.1119092948966237  0.8885117259629632  0.3247091142663796
  0.4481092385003321  0.2191642001601916  0.3236177516344366
  0.4481081817298198  0.5622788814013184  0.3236182058755842
  0.4527300520663516  0.8930319707246031  0.3225968670421369
  0.7695635277707457  0.2179108578288414  0.3206879548501542
  0.7804644811921077  0.5568993577278519  0.3229076756603657
  0.7695620175453578  0.8849851979183340  0.3206868206923871
 
  0.00000000E+00  0.00000000E+00  0.00000000E+00
  0.00000000E+00  0.00000000E+00  0.00000000E+00
  0.00000000E+00  0.00000000E+00  0.00000000E+00
  0.00000000E+00  0.00000000E+00  0.00000000E+00
  0.00000000E+00  0.00000000E+00  0.00000000E+00
  0.00000000E+00  0.00000000E+00  0.00000000E+00
  0.00000000E+00  0.00000000E+00  0.00000000E+00
  0.00000000E+00  0.00000000E+00  0.00000000E+00
  0.00000000E+00  0.00000000E+00  0.00000000E+00
  0.00000000E+00  0.00000000E+00  0.00000000E+00
  0.00000000E+00  0.00000000E+00  0.00000000E+00
  0.00000000E+00  0.00000000E+00  0.00000000E+00
  0.00000000E+00  0.00000000E+00  0.00000000E+00
  0.00000000E+00  0.00000000E+00  0.00000000E+00
  0.00000000E+00  0.00000000E+00  0.00000000E+00
  0.00000000E+00  0.00000000E+00  0.00000000E+00
  0.00000000E+00  0.00000000E+00  0.00000000E+00
  0.00000000E+00  0.00000000E+00  0.00000000E+00
  0.00000000E+00  0.00000000E+00  0.00000000E+00
  0.00000000E+00  0.00000000E+00  0.00000000E+00
  0.00000000E+00  0.00000000E+00  0.00000000E+00
  0.00000000E+00  0.00000000E+00  0.00000000E+00
  0.00000000E+00  0.00000000E+00  0.00000000E+00
  0.00000000E+00  0.00000000E+00  0.00000000E+00
  0.00000000E+00  0.00000000E+00  0.00000000E+00
  0.00000000E+00  0.00000000E+00  0.00000000E+00
  0.00000000E+00  0.00000000E+00  0.00000000E+00
  0.00000000E+00  0.00000000E+00  0.00000000E+00
  0.00000000E+00  0.00000000E+00  0.00000000E+00
  0.00000000E+00  0.00000000E+00  0.00000000E+00
  0.00000000E+00  0.00000000E+00  0.00000000E+00
  0.00000000E+00  0.00000000E+00  0.00000000E+00
  0.00000000E+00  0.00000000E+00  0.00000000E+00
  0.00000000E+00  0.00000000E+00  0.00000000E+00
  0.00000000E+00  0.00000000E+00  0.00000000E+00
  0.00000000E+00  0.00000000E+00  0.00000000E+00
  0.00000000E+00  0.00000000E+00  0.00000000E+00
  0.00000000E+00  0.00000000E+00  0.00000000E+00
  0.00000000E+00  0.00000000E+00  0.00000000E+00
  0.00000000E+00  0.00000000E+00  0.00000000E+00
  0.00000000E+00  0.00000000E+00  0.00000000E+00
  0.00000000E+00  0.00000000E+00  0.00000000E+00
  0.00000000E+00  0.00000000E+00  0.00000000E+00
  0.00000000E+00  0.00000000E+00  0.00000000E+00
  0.00000000E+00  0.00000000E+00  0.00000000E+00
  0.00000000E+00  0.00000000E+00  0.00000000E+00
  0.00000000E+00  0.00000000E+00  0.00000000E+00
  0.00000000E+00  0.00000000E+00  0.00000000E+00
  0.00000000E+00  0.00000000E+00  0.00000000E+00
  0.00000000E+00  0.00000000E+00  0.00000000E+00
  0.00000000E+00  0.00000000E+00  0.00000000E+00
  0.00000000E+00  0.00000000E+00  0.00000000E+00
  0.00000000E+00  0.00000000E+00  0.00000000E+00
  0.00000000E+00  0.00000000E+00  0.00000000E+00
  0.00000000E+00  0.00000000E+00  0.00000000E+00
  0.00000000E+00  0.00000000E+00  0.00000000E+00
  0.00000000E+00  0.00000000E+00  0.00000000E+00
  0.00000000E+00  0.00000000E+00  0.00000000E+00
  0.00000000E+00  0.00000000E+00  0.00000000E+00
  0.00000000E+00  0.00000000E+00  0.00000000E+00
  0.00000000E+00  0.00000000E+00  0.00000000E+00
