cif2pos.py                              
   1.00000000000000     
    11.6563999999999997    0.0000000000000000    0.0000000000000000
    -5.8282323800000002   10.0948352900000007    0.0000000000000000
     0.0000000000000000    0.0000000000000000   25.0000000000000000
   Cd   Cl   Zn   S 
     9    18    18    16
Direct
  0.3335849937894153  0.0004940352013563  0.6282234490054392
  0.3343798511271743  0.3338078362156978  0.6302003144672454
  0.3335463427187477  0.6667033253842689  0.6283939936149565
  0.6671007787725287  0.0005745777763835  0.6296795860411279
  0.6668664329342064  0.3329104967700900  0.6290801369813721
  0.6666651208790881  0.6669849045027192  0.6284197109106699
  0.9994007323667660  0.0002106402959043  0.6294135430602523
  0.0000540810783605  0.3336557816805552  0.6296252488414709
  0.9998789793190639  0.6669600100605422  0.6269871073701196
  0.2228552163638682  0.1113553652146777  0.6870066028746962
  0.2228676833285235  0.4455416267193755  0.6873287724586632
  0.2209016839290499  0.7774366411149458  0.6857073184322786
  0.5550722478158931  0.1117529028352351  0.6872955868261812
  0.5565716243072885  0.4452787618017240  0.6871885390374928
  0.5552390259448075  0.7764285447199626  0.6867955041277156
  0.8903791266728049  0.1116031298720443  0.6874490933428063
  0.8893218235422538  0.4465877474209208  0.6865078542392880
  0.8881935981288436  0.7760897602803993  0.6864191539279503
  0.1138260372443725  0.2250182916355072  0.5711871789950465
  0.1109617396237184  0.5524566141944547  0.5710285804118485
  0.1095716393882498  0.8921547879091847  0.5716302956261572
  0.4456274672640390  0.2240631517196334  0.5709073693632405
  0.4435531193282145  0.5529032760672834  0.5707680847747696
  0.4467971445009766  0.8904232211230294  0.5723555568602521
  0.7788089092839101  0.2218555211548150  0.5718791959416976
  0.7749878885056205  0.5537291821382979  0.5705688637876776
  0.7780286024194112  0.8902917694398980  0.5714028533202580
  0.2363859946781943  0.1295501248601596  0.3428913179825344
  0.2158656470791769  0.4283294989754722  0.3257061898677023
  0.2244807838159630  0.7833419052211426  0.3277769756544302
  0.5576800157670760  0.1152339201315442  0.3439085647981557
  0.5632228845238032  0.4343623410692601  0.3453114382176352
  0.5533547071532752  0.7695547071613262  0.3494326114069892
  0.9089507919254842  0.1151953214144967  0.3444621257497076
  0.8742367560856934  0.4377368084234163  0.3418098507370644
  0.8780613108039645  0.7592488285923764  0.3468836067419474
  0.1655069224695822  0.2858221915051615  0.4429201852295535
  0.0911850165620223  0.5857904706619195  0.4263655175020560
  0.1156058121119159  0.8952808545924569  0.4288540184746452
  0.4908058138650446  0.2715959254063947  0.4300949093777930
  0.3613423861784497  0.5223180792150401  0.4286770737329775
  0.4368031371147083  0.8848794907928195  0.4291758617615713
  0.7888618291843272  0.2149378732836666  0.4259489648810373
  0.7173498997455923  0.5097169498459806  0.4328503461810840
  0.7771098249774724  0.8828285637053668  0.4293492245415251
  0.2505169080018064  0.1385497955785198  0.4401418876966403
  0.2223991613015031  0.7865508811136550  0.4619593612478070
  0.5632113670325296  0.1149828895747333  0.4444721408118255
  0.5362958328617253  0.7567840631859966  0.4480626740528209
  0.9212843667277184  0.1233446441752974  0.4425955897949763
  0.8766447239210180  0.4395317885283916  0.4459894118904160
  0.8729668593275761  0.7527840627981703  0.4455111535229292
  0.1132092990923255  0.2144796469353594  0.3039064975864889
  0.1126397027065877  0.5538373733701860  0.3333227981460496
  0.1093155918016890  0.8915553612516263  0.3306542193072843
  0.4513631662545023  0.2219512295697683  0.3117805775565969
  0.4418706742889711  0.5432967747994226  0.3324605440892299
  0.4465407929382152  0.8863050201991811  0.3258232247779915
  0.7828176388632997  0.2163862702177966  0.3226570559605832
  0.7753729742226056  0.5510359688443174  0.3103367184123158
  0.7766195160390055  0.8853384717506216  0.3287578676669369
 
  0.00000000E+00  0.00000000E+00  0.00000000E+00
  0.00000000E+00  0.00000000E+00  0.00000000E+00
  0.00000000E+00  0.00000000E+00  0.00000000E+00
  0.00000000E+00  0.00000000E+00  0.00000000E+00
  0.00000000E+00  0.00000000E+00  0.00000000E+00
  0.00000000E+00  0.00000000E+00  0.00000000E+00
  0.00000000E+00  0.00000000E+00  0.00000000E+00
  0.00000000E+00  0.00000000E+00  0.00000000E+00
  0.00000000E+00  0.00000000E+00  0.00000000E+00
  0.00000000E+00  0.00000000E+00  0.00000000E+00
  0.00000000E+00  0.00000000E+00  0.00000000E+00
  0.00000000E+00  0.00000000E+00  0.00000000E+00
  0.00000000E+00  0.00000000E+00  0.00000000E+00
  0.00000000E+00  0.00000000E+00  0.00000000E+00
  0.00000000E+00  0.00000000E+00  0.00000000E+00
  0.00000000E+00  0.00000000E+00  0.00000000E+00
  0.00000000E+00  0.00000000E+00  0.00000000E+00
  0.00000000E+00  0.00000000E+00  0.00000000E+00
  0.00000000E+00  0.00000000E+00  0.00000000E+00
  0.00000000E+00  0.00000000E+00  0.00000000E+00
  0.00000000E+00  0.00000000E+00  0.00000000E+00
  0.00000000E+00  0.00000000E+00  0.00000000E+00
  0.00000000E+00  0.00000000E+00  0.00000000E+00
  0.00000000E+00  0.00000000E+00  0.00000000E+00
  0.00000000E+00  0.00000000E+00  0.00000000E+00
  0.00000000E+00  0.00000000E+00  0.00000000E+00
  0.00000000E+00  0.00000000E+00  0.00000000E+00
  0.00000000E+00  0.00000000E+00  0.00000000E+00
  0.00000000E+00  0.00000000E+00  0.00000000E+00
  0.00000000E+00  0.00000000E+00  0.00000000E+00
  0.00000000E+00  0.00000000E+00  0.00000000E+00
  0.00000000E+00  0.00000000E+00  0.00000000E+00
  0.00000000E+00  0.00000000E+00  0.00000000E+00
  0.00000000E+00  0.00000000E+00  0.00000000E+00
  0.00000000E+00  0.00000000E+00  0.00000000E+00
  0.00000000E+00  0.00000000E+00  0.00000000E+00
  0.00000000E+00  0.00000000E+00  0.00000000E+00
  0.00000000E+00  0.00000000E+00  0.00000000E+00
  0.00000000E+00  0.00000000E+00  0.00000000E+00
  0.00000000E+00  0.00000000E+00  0.00000000E+00
  0.00000000E+00  0.00000000E+00  0.00000000E+00
  0.00000000E+00  0.00000000E+00  0.00000000E+00
  0.00000000E+00  0.00000000E+00  0.00000000E+00
  0.00000000E+00  0.00000000E+00  0.00000000E+00
  0.00000000E+00  0.00000000E+00  0.00000000E+00
  0.00000000E+00  0.00000000E+00  0.00000000E+00
  0.00000000E+00  0.00000000E+00  0.00000000E+00
  0.00000000E+00  0.00000000E+00  0.00000000E+00
  0.00000000E+00  0.00000000E+00  0.00000000E+00
  0.00000000E+00  0.00000000E+00  0.00000000E+00
  0.00000000E+00  0.00000000E+00  0.00000000E+00
  0.00000000E+00  0.00000000E+00  0.00000000E+00
  0.00000000E+00  0.00000000E+00  0.00000000E+00
  0.00000000E+00  0.00000000E+00  0.00000000E+00
  0.00000000E+00  0.00000000E+00  0.00000000E+00
  0.00000000E+00  0.00000000E+00  0.00000000E+00
  0.00000000E+00  0.00000000E+00  0.00000000E+00
  0.00000000E+00  0.00000000E+00  0.00000000E+00
  0.00000000E+00  0.00000000E+00  0.00000000E+00
  0.00000000E+00  0.00000000E+00  0.00000000E+00
  0.00000000E+00  0.00000000E+00  0.00000000E+00
