cif2pos.py                              
   1.00000000000000     
    11.6563999999999997    0.0000000000000000    0.0000000000000000
    -5.8282323800000002   10.0948352900000007    0.0000000000000000
     0.0000000000000000    0.0000000000000000   25.0000000000000000
   Cd   Cl   Zn   S 
     9    18    18    17
Direct
  0.3334889259803047  0.0000780936861746  0.6284719042484720
  0.3332494527371807  0.3334180432348974  0.6286018320230463
  0.3332488033240291  0.6664984546868641  0.6286023653782167
  0.6665888847350413  0.0000775015754586  0.6284713774232082
  0.6665892591322727  0.3331775920477626  0.6284710388758031
  0.6665450591125203  0.6666057359736555  0.6279720799644884
  0.0000607601940421  0.0001214521861468  0.6279722331306361
  0.0001689631473988  0.3334177608697368  0.6286016704602703
  0.0000605274518926  0.6666060943469986  0.6279724408496186
  0.2215986018310261  0.1109988934913234  0.6862649762595685
  0.2222222175204465  0.4444445896458526  0.6867149326521436
  0.2215979245722259  0.7772675207360099  0.6862652167757273
  0.5555563644329314  0.1111116585780590  0.6865932947694845
  0.5556690300186756  0.4450682390822751  0.6862648454550828
  0.5556687828962652  0.7772671601603164  0.6862650332245487
  0.8893998118658387  0.1109980957835599  0.6862647512534189
  0.8893993580376698  0.4450677814750730  0.6862648131737779
  0.8888882048351802  0.7777776270058488  0.6860585036417589
  0.1120528981098300  0.2241048603005128  0.5704231161723685
  0.1120526906229633  0.5546150286922706  0.5704232994723653
  0.1115692564637188  0.8891180263176027  0.5708556534167435
  0.4443844266881762  0.2222817703230088  0.5712067257104323
  0.4425616525648463  0.5546146603301902  0.5704231886096538
  0.4443838224933028  0.8887686704957819  0.5712069068039101
  0.7778980089266878  0.2222815381368817  0.5712065932623961
  0.7775489676650739  0.5550974424607297  0.5708553714483603
  0.7775485075511109  0.8891174109093603  0.5708554146179365
  0.2208461219215607  0.1137503677757572  0.3441275028476095
  0.2222220285736116  0.4444444067383171  0.3592407371579873
  0.2208450547966270  0.7737627676134520  0.3441278178387259
  0.5555556807780965  0.1111112087502352  0.3436636302448956
  0.5529161037140782  0.4458208129450204  0.3441279253290552
  0.5529167424950016  0.7737623861491474  0.3441273987369962
  0.8929035386720233  0.1137488930938537  0.3441279760024302
  0.8929037420469156  0.4458206833610324  0.3441275471847589
  0.8888884014740249  0.7777775949124116  0.3443828229285911
  0.1212352700831962  0.2424685404116875  0.4237784990231217
  0.1212344144576702  0.5454337389540487  0.4237785211129032
  0.1117665901981759  0.8892170854705052  0.4271634897148990
  0.4442258965181952  0.2224419393811130  0.4270224437771265
  0.4241969082529158  0.5454320170413611  0.4237792282809830
  0.4442254926533831  0.8884505799478642  0.4270222403433386
  0.7782169229619308  0.2224416740221914  0.4270223106660425
  0.7774504438067580  0.5549002491981841  0.4271632958716095
  0.7774498775200188  0.8892163070040722  0.4271635684782888
  0.2207817120917619  0.1169603057371368  0.4472541513872412
  0.2207810746862534  0.7704875772069995  0.4472543477548179
  0.5555555586797495  0.1111102954216876  0.4487705343302280
  0.5497056652150794  0.4458847475287564  0.4472539591084928
  0.5497051363620064  0.7704864303765995  0.4472541246361663
  0.8961791621513121  0.1169596415255379  0.4472542195952671
  0.8961789910910910  0.4458847712431837  0.4472543306363689
  0.8888881281908901  0.7777770701903183  0.4493663666945842
  0.1148724690615191  0.2297450089902082  0.3207311759726970
  0.1148727934870507  0.5517957307668442  0.3207313651601741
  0.1118821223279140  0.8892752343037040  0.3244299789701284
  0.4442245431641348  0.2224438726552962  0.3229658679731183
  0.4369230076776913  0.5517951623011108  0.3207310385738382
  0.4442239694774642  0.8884478846855908  0.3229660716813413
  0.7782199593765390  0.2224434515685240  0.3229660089420324
  0.7773926586179152  0.5547855621505202  0.3244301446075974
  0.7773926545067921  0.8892742980453745  0.3244297793631596
 
  0.00000000E+00  0.00000000E+00  0.00000000E+00
  0.00000000E+00  0.00000000E+00  0.00000000E+00
  0.00000000E+00  0.00000000E+00  0.00000000E+00
  0.00000000E+00  0.00000000E+00  0.00000000E+00
  0.00000000E+00  0.00000000E+00  0.00000000E+00
  0.00000000E+00  0.00000000E+00  0.00000000E+00
  0.00000000E+00  0.00000000E+00  0.00000000E+00
  0.00000000E+00  0.00000000E+00  0.00000000E+00
  0.00000000E+00  0.00000000E+00  0.00000000E+00
  0.00000000E+00  0.00000000E+00  0.00000000E+00
  0.00000000E+00  0.00000000E+00  0.00000000E+00
  0.00000000E+00  0.00000000E+00  0.00000000E+00
  0.00000000E+00  0.00000000E+00  0.00000000E+00
  0.00000000E+00  0.00000000E+00  0.00000000E+00
  0.00000000E+00  0.00000000E+00  0.00000000E+00
  0.00000000E+00  0.00000000E+00  0.00000000E+00
  0.00000000E+00  0.00000000E+00  0.00000000E+00
  0.00000000E+00  0.00000000E+00  0.00000000E+00
  0.00000000E+00  0.00000000E+00  0.00000000E+00
  0.00000000E+00  0.00000000E+00  0.00000000E+00
  0.00000000E+00  0.00000000E+00  0.00000000E+00
  0.00000000E+00  0.00000000E+00  0.00000000E+00
  0.00000000E+00  0.00000000E+00  0.00000000E+00
  0.00000000E+00  0.00000000E+00  0.00000000E+00
  0.00000000E+00  0.00000000E+00  0.00000000E+00
  0.00000000E+00  0.00000000E+00  0.00000000E+00
  0.00000000E+00  0.00000000E+00  0.00000000E+00
  0.00000000E+00  0.00000000E+00  0.00000000E+00
  0.00000000E+00  0.00000000E+00  0.00000000E+00
  0.00000000E+00  0.00000000E+00  0.00000000E+00
  0.00000000E+00  0.00000000E+00  0.00000000E+00
  0.00000000E+00  0.00000000E+00  0.00000000E+00
  0.00000000E+00  0.00000000E+00  0.00000000E+00
  0.00000000E+00  0.00000000E+00  0.00000000E+00
  0.00000000E+00  0.00000000E+00  0.00000000E+00
  0.00000000E+00  0.00000000E+00  0.00000000E+00
  0.00000000E+00  0.00000000E+00  0.00000000E+00
  0.00000000E+00  0.00000000E+00  0.00000000E+00
  0.00000000E+00  0.00000000E+00  0.00000000E+00
  0.00000000E+00  0.00000000E+00  0.00000000E+00
  0.00000000E+00  0.00000000E+00  0.00000000E+00
  0.00000000E+00  0.00000000E+00  0.00000000E+00
  0.00000000E+00  0.00000000E+00  0.00000000E+00
  0.00000000E+00  0.00000000E+00  0.00000000E+00
  0.00000000E+00  0.00000000E+00  0.00000000E+00
  0.00000000E+00  0.00000000E+00  0.00000000E+00
  0.00000000E+00  0.00000000E+00  0.00000000E+00
  0.00000000E+00  0.00000000E+00  0.00000000E+00
  0.00000000E+00  0.00000000E+00  0.00000000E+00
  0.00000000E+00  0.00000000E+00  0.00000000E+00
  0.00000000E+00  0.00000000E+00  0.00000000E+00
  0.00000000E+00  0.00000000E+00  0.00000000E+00
  0.00000000E+00  0.00000000E+00  0.00000000E+00
  0.00000000E+00  0.00000000E+00  0.00000000E+00
  0.00000000E+00  0.00000000E+00  0.00000000E+00
  0.00000000E+00  0.00000000E+00  0.00000000E+00
  0.00000000E+00  0.00000000E+00  0.00000000E+00
  0.00000000E+00  0.00000000E+00  0.00000000E+00
  0.00000000E+00  0.00000000E+00  0.00000000E+00
  0.00000000E+00  0.00000000E+00  0.00000000E+00
  0.00000000E+00  0.00000000E+00  0.00000000E+00
  0.00000000E+00  0.00000000E+00  0.00000000E+00
