cif2pos.py                              
   1.00000000000000     
     2.5959351200872312    0.0000000000000000    0.0000000000000000
    -1.2979675600436156    2.2481453112949725    0.0000000000000000
     0.0000000000000000    0.0000000000000000    4.9467999999999996
   Zn
     2
Direct
  0.3333300460587623  0.6666699539412306  0.2500000000000000
  0.6666699539412377  0.3333300460587694  0.7500000000000000
 
  0.00000000E+00  0.00000000E+00  0.00000000E+00
  0.00000000E+00  0.00000000E+00  0.00000000E+00
