cif2pos.py                              
   1.00000000000000     
     3.8854788458808240    0.0000000000000000    0.0000000000000000
    -1.9427394229404120    3.3649345481632928    0.0000000000000000
     0.0000000000000000    0.0000000000000000   25.0000000000000000
   Cd   Cl   Zn   S 
     1     2     2     2
Direct
  0.9999999944804046  0.0000000055196026  0.6283999861871733
  0.6666697683153728  0.3333302316849327  0.6864804923947970
  0.3333302482603884  0.6666697517392848  0.5709588134690107
  0.6666682197125695  0.3333317802897824  0.3443188206983216
  0.3333318102043279  0.6666681897932847  0.4267507808654146
  0.6666681125731273  0.3333318874293667  0.4482962995455286
  0.3333318464538095  0.6666681535437533  0.3225448068397574
 
  0.00000000E+00  0.00000000E+00  0.00000000E+00
  0.00000000E+00  0.00000000E+00  0.00000000E+00
  0.00000000E+00  0.00000000E+00  0.00000000E+00
  0.00000000E+00  0.00000000E+00  0.00000000E+00
  0.00000000E+00  0.00000000E+00  0.00000000E+00
  0.00000000E+00  0.00000000E+00  0.00000000E+00
  0.00000000E+00  0.00000000E+00  0.00000000E+00
